&CONTROL
  prefix = 'bwse2_aa'
  outdir = '../out/'
  verbosity = 'high'
  pseudo_dir = '../pseudo/'
  tprnfor = true
  calculation = 'scf'
/
&SYSTEM
  assume_isolated = '2D'
  ibrav = 4
  nat = 114
  ntyp = 2
  occupations = 'fixed'
  ecutwfc = 30
  ecutrho = 120
  input_dft = 'vdw-df-cx'
  a = 14.493338987272741
  c = 32
/
&ELECTRONS
/
&IONS
/
ATOMIC_SPECIES
  W    183.84   'W_pbe_v1.2.uspp.F.UPF'
ATOMIC_POSITIONS angstrom
  Se   78.960   'Se_pbe_v1.uspp.F.UPF'
ATOMIC_POSITIONS angstrom
  W    -4.195440   11.230378   0.0000000
  W    -3.814036   7.9273261   0.0000000
  W    -1.144210   9.9091576   0.0000000
  W    1.5256146   11.890989   0.0000000
  W    -0.762807   6.6061051   0.0000000
  W    1.9070182   8.5879366   0.0000000
  W    4.5768438   10.569768   0.0000000
  W    -0.381403   3.3030525   0.0000000
  W    2.2884219   5.2848841   0.0000000
  W    4.9582475   7.2667156   0.0000000
  W    7.6280731   9.2485471   0.0000000
  W    0.0000000   0.0000000   0.0000000
  W    2.6698256   1.9818315   0.0000000
  W    5.3396512   3.9636630   0.0000000
  W    8.0094768   5.9454946   0.0000000
  W    5.7210548   0.6606105   0.0000000
  W    8.3908804   2.6424420   0.0000000
  W    11.060706   4.6242735   0.0000000
  W    11.442109   1.3212210   0.0000000
  W    11.823513   1.9818315   6.1458526
  W    8.7722841   0.6606105   6.1458526
  W    9.1536877   3.9636630   6.1458526
  W    6.1024585   2.6424420   6.1458526
  W    3.0512292   1.3212210   6.1458526
  W    0.0000000   0.0000000   6.1458526
  W    9.5350914   7.2667156   6.1458526
  W    6.4838621   5.9454946   6.1458526
  W    3.4326329   4.6242735   6.1458526
  W    0.3814036   3.3030525   6.1458526
  W    6.8652658   9.2485471   6.1458526
  W    3.8140365   7.9273261   6.1458526
  W    0.7628073   6.6061051   6.1458526
  W    -2.288421   5.2848841   6.1458526
  W    4.1954402   11.230378   6.1458526
  W    1.1442109   9.9091576   6.1458526
  W    -1.907018   8.5879366   6.1458526
  W    -1.525614   11.890989   6.1458526
  W    -4.576843   10.569768   6.1458526
  Se   -4.958247   9.4687506   1.6787116
  Se   -2.288421   11.450582   1.6787116
  Se   -1.907018   8.1475296   1.6787116
  Se   0.7628073   10.129361   1.6787116
  Se   3.4326329   12.111192   1.6787116
  Se   -1.525614   4.8444770   1.6787116
  Se   1.1442109   6.8263086   1.6787116
  Se   3.8140365   8.8081401   1.6787116
  Se   6.4838621   10.789971   1.6787116
  Se   1.5256146   3.5232560   1.6787116
  Se   4.1954402   5.5050876   1.6787116
  Se   6.8652658   7.4869191   1.6787116
  Se   1.9070182   0.2202035   1.6787116
  Se   4.5768438   2.2020350   1.6787116
  Se   7.2466694   4.1838665   1.6787116
  Se   9.9164950   6.1656981   1.6787116
  Se   7.6280731   0.8808140   1.6787116
  Se   10.297898   2.8626455   1.6787116
  Se   13.349128   1.5414245   1.6787116
  Se   -4.958247   9.4687506   -1.678711
  Se   -2.288421   11.450582   -1.678711
  Se   -1.907018   8.1475296   -1.678711
  Se   0.7628073   10.129361   -1.678711
  Se   3.4326329   12.111192   -1.678711
  Se   -1.525614   4.8444770   -1.678711
  Se   1.1442109   6.8263086   -1.678711
  Se   3.8140365   8.8081401   -1.678711
  Se   6.4838621   10.789971   -1.678711
  Se   1.5256146   3.5232560   -1.678711
  Se   4.1954402   5.5050876   -1.678711
  Se   6.8652658   7.4869191   -1.678711
  Se   1.9070182   0.2202035   -1.678711
  Se   4.5768438   2.2020350   -1.678711
  Se   7.2466694   4.1838665   -1.678711
  Se   9.9164950   6.1656981   -1.678711
  Se   7.6280731   0.8808140   -1.678711
  Se   10.297898   2.8626455   -1.678711
  Se   13.349128   1.5414245   -1.678711
  Se   12.586320   0.2202035   7.8245642
  Se   9.9164950   2.2020350   7.8245642
  Se   6.8652658   0.8808140   7.8245642
  Se   10.297898   5.5050876   7.8245642
  Se   7.2466694   4.1838665   7.8245642
  Se   4.1954402   2.8626455   7.8245642
  Se   1.1442109   1.5414245   7.8245642
  Se   7.6280731   7.4869191   7.8245642
  Se   4.5768438   6.1656981   7.8245642
  Se   1.5256146   4.8444770   7.8245642
  Se   -1.525614   3.5232560   7.8245642
  Se   8.0094768   10.789971   7.8245642
  Se   4.9582475   9.4687506   7.8245642
  Se   1.9070182   8.1475296   7.8245642
  Se   -1.144210   6.8263086   7.8245642
  Se   2.2884219   11.450582   7.8245642
  Se   -0.762807   10.129361   7.8245642
  Se   -3.814036   8.8081401   7.8245642
  Se   -3.432632   12.111192   7.8245642
  Se   12.586320   0.2202035   4.4671409
  Se   9.9164950   2.2020350   4.4671409
  Se   6.8652658   0.8808140   4.4671409
  Se   10.297898   5.5050876   4.4671409
  Se   7.2466694   4.1838665   4.4671409
  Se   4.1954402   2.8626455   4.4671409
  Se   1.1442109   1.5414245   4.4671409
  Se   7.6280731   7.4869191   4.4671409
  Se   4.5768438   6.1656981   4.4671409
  Se   1.5256146   4.8444770   4.4671409
  Se   -1.525614   3.5232560   4.4671409
  Se   8.0094768   10.789971   4.4671409
  Se   4.9582475   9.4687506   4.4671409
  Se   1.9070182   8.1475296   4.4671409
  Se   -1.144210   6.8263086   4.4671409
  Se   2.2884219   11.450582   4.4671409
  Se   -0.762807   10.129361   4.4671409
  Se   -3.814036   8.8081401   4.4671409
  Se   -3.432632   12.111192   4.4671409
K_POINTS automatic
  9 9 1 1 1 1