&CONTROL
  prefix = 'wse2'
  outdir = './out'
  verbosity = 'high'
  pseudo_dir = '../'
  calculation = 'scf'
/
&SYSTEM
  assume_isolated = '2D'
  ibrav = 4
  nat = 42
  ntyp = 2
  occupations = 'fixed'
  ecutwfc = 30
  ecutrho = 120
  lspinorb = true
  noncolin = true
  nbnd = 36
  a = 8.797123109289764
  c = 32
/
&ELECTRONS
/
ATOMIC_SPECIES
  W    183.84   'W_pbe_v1.2.uspp.F.UPF'
  Se   78.96   'pseudo/Se_pbe_v1.uspp.F.UPF'
ATOMIC_POSITIONS alat
  W    -0.142857   0.7423074   0.0000000
  W    -0.071428   0.3711537   0.0000000
  W    0.2142857   0.6185895   0.0000000
  W    0.0000000   0.0000000   0.0000000
  W    0.2857142   0.2474358   0.0000000
  W    0.5714285   0.4948716   0.0000000
  W    0.6428571   0.1237179   0.0000000
  W    0.7142857   0.2474358   0.6986207
  W    0.3571428   0.1237179   0.6986207
  W    0.0000000   0.0000000   0.6986207
  W    0.4285714   0.4948716   0.6986207
  W    0.0714285   0.3711537   0.6986207
  W    0.1428571   0.7423074   0.6986207
  W    -0.214285   0.6185895   0.6986207
  Se   -0.214285   0.5361109   0.1908250
  Se   0.0714285   0.7835467   0.1908250
  Se   0.1428571   0.4123930   0.1908250
  Se   0.4285714   0.6598288   0.1908250
  Se   0.2142857   0.0412393   0.1908250
  Se   0.5000000   0.2886751   0.1908250
  Se   0.8571428   0.1649572   0.1908250
  Se   -0.214285   0.5361109   -0.190825
  Se   0.0714285   0.7835467   -0.190825
  Se   0.1428571   0.4123930   -0.190825
  Se   0.4285714   0.6598288   -0.190825
  Se   0.2142857   0.0412393   -0.190825
  Se   0.5000000   0.2886751   -0.190825
  Se   0.8571428   0.1649572   -0.190825
  Se   0.7857142   0.0412393   0.8894458
  Se   0.5000000   0.2886751   0.8894458
  Se   0.1428571   0.1649572   0.8894458
  Se   0.5714285   0.6598288   0.8894458
  Se   0.2142857   0.5361109   0.8894458
  Se   -0.142857   0.4123930   0.8894458
  Se   -0.071428   0.7835467   0.8894458
  Se   0.7857142   0.0412393   0.5077956
  Se   0.5000000   0.2886751   0.5077956
  Se   0.1428571   0.1649572   0.5077956
  Se   0.5714285   0.6598288   0.5077956
  Se   0.2142857   0.5361109   0.5077956
  Se   -0.142857   0.4123930   0.5077956
  Se   -0.071428   0.7835467   0.5077956
K_POINTS automatic
  9 9 1 1 1 1