&CONTROL
  prefix = 'tbwse2_21'
  outdir = '../out/'
  verbosity = 'high'
  pseudo_dir = '../pseudo/'
  tprnfor = true
  calculation = 'nscf'
/
&SYSTEM
  assume_isolated = '2D'
  ibrav = 4
  nat = 42
  ntyp = 2
  occupations = 'fixed'
  ecutwfc = 30
  ecutrho = 120
  a = 8.797123109289764
  c = 32
/
&ELECTRONS
/
&IONS
/
ATOMIC_SPECIES
  W    183.84   'W_pbe_v1.2.uspp.F.UPF'
  Se   78.960   'Se_pbe_v1.uspp.F.UPF'
ATOMIC_POSITIONS angstrom
  W    -1.256731   6.5301703   0.0081597
  W    -0.628365   3.2650851   0.0081597
  W    1.8850978   5.4418086   0.0081597
  W    0.0000000   0.0000000   0.0242275
  W    2.5134637   2.1767234   -0.013017
  W    5.0269274   4.3534469   -0.013017
  W    5.6552934   1.0883617   -0.013017
  W    6.2836593   2.1767234   6.8134994
  W    3.1418296   1.0883617   6.8134993
  W    0.0000000   0.0000000   6.7773404
  W    3.7701956   4.3534469   6.8134993
  W    0.6283659   3.2650851   6.7925578
  W    1.2567318   6.5301703   6.7925578
  W    -1.885097   5.4418086   6.7925578
  Se   -1.885097   4.7162341   1.6824286
  Se   0.6283659   6.8929576   1.6824286
  Se   1.2567318   3.6278724   1.6824286
  Se   3.7701956   5.8045958   1.6855428
  Se   1.8850978   0.3627872   1.6855428
  Se   4.3985615   2.5395106   1.6429356
  Se   7.5403912   1.4511489   1.6855428
  Se   -1.885097   4.7162341   -1.678145
  Se   0.6283659   6.8929576   -1.678145
  Se   1.2567318   3.6278724   -1.678145
  Se   3.7701956   5.8045958   -1.672680
  Se   1.8850978   0.3627872   -1.672680
  Se   4.3985615   2.5395106   -1.702562
  Se   7.5403912   1.4511489   -1.672680
  Se   6.9120253   0.3627872   8.4717564
  Se   4.3985615   2.5395106   8.5143768
  Se   1.2567318   1.4511489   8.4717564
  Se   5.0269274   5.8045958   8.4717564
  Se   1.8850978   4.7162341   8.4776124
  Se   -1.256731   3.6278724   8.4776124
  Se   -0.628365   6.8929576   8.4776124
  Se   6.9120253   0.3627872   5.1164817
  Se   4.3985615   2.5395106   5.1492014
  Se   1.2567318   1.4511489   5.1164817
  Se   5.0269274   5.8045958   5.1164817
  Se   1.8850978   4.7162341   5.1193654
  Se   -1.256731   3.6278724   5.1193654
  Se   -0.628365   6.8929576   5.1193654
K_POINTS crystal
64
  0.0000000   0.0000000   0.0000000 1
  0.0000000   0.1250000   0.0000000 1
  0.0000000   0.2500000   0.0000000 1
  0.0000000   0.3750000   0.0000000 1
  0.0000000   0.5000000   0.0000000 1
  0.0000000   0.6250000   0.0000000 1
  0.0000000   0.7500000   0.0000000 1
  0.0000000   0.8750000   0.0000000 1
  0.1250000   0.0000000   0.0000000 1
  0.1250000   0.1250000   0.0000000 1
  0.1250000   0.2500000   0.0000000 1
  0.1250000   0.3750000   0.0000000 1
  0.1250000   0.5000000   0.0000000 1
  0.1250000   0.6250000   0.0000000 1
  0.1250000   0.7500000   0.0000000 1
  0.1250000   0.8750000   0.0000000 1
  0.2500000   0.0000000   0.0000000 1
  0.2500000   0.1250000   0.0000000 1
  0.2500000   0.2500000   0.0000000 1
  0.2500000   0.3750000   0.0000000 1
  0.2500000   0.5000000   0.0000000 1
  0.2500000   0.6250000   0.0000000 1
  0.2500000   0.7500000   0.0000000 1
  0.2500000   0.8750000   0.0000000 1
  0.3750000   0.0000000   0.0000000 1
  0.3750000   0.1250000   0.0000000 1
  0.3750000   0.2500000   0.0000000 1
  0.3750000   0.3750000   0.0000000 1
  0.3750000   0.5000000   0.0000000 1
  0.3750000   0.6250000   0.0000000 1
  0.3750000   0.7500000   0.0000000 1
  0.3750000   0.8750000   0.0000000 1
  0.5000000   0.0000000   0.0000000 1
  0.5000000   0.1250000   0.0000000 1
  0.5000000   0.2500000   0.0000000 1
  0.5000000   0.3750000   0.0000000 1
  0.5000000   0.5000000   0.0000000 1
  0.5000000   0.6250000   0.0000000 1
  0.5000000   0.7500000   0.0000000 1
  0.5000000   0.8750000   0.0000000 1
  0.6250000   0.0000000   0.0000000 1
  0.6250000   0.1250000   0.0000000 1
  0.6250000   0.2500000   0.0000000 1
  0.6250000   0.3750000   0.0000000 1
  0.6250000   0.5000000   0.0000000 1
  0.6250000   0.6250000   0.0000000 1
  0.6250000   0.7500000   0.0000000 1
  0.6250000   0.8750000   0.0000000 1
  0.7500000   0.0000000   0.0000000 1
  0.7500000   0.1250000   0.0000000 1
  0.7500000   0.2500000   0.0000000 1
  0.7500000   0.3750000   0.0000000 1
  0.7500000   0.5000000   0.0000000 1
  0.7500000   0.6250000   0.0000000 1
  0.7500000   0.7500000   0.0000000 1
  0.7500000   0.8750000   0.0000000 1
  0.8750000   0.0000000   0.0000000 1
  0.8750000   0.1250000   0.0000000 1
  0.8750000   0.2500000   0.0000000 1
  0.8750000   0.3750000   0.0000000 1
  0.8750000   0.5000000   0.0000000 1
  0.8750000   0.6250000   0.0000000 1
  0.8750000   0.7500000   0.0000000 1
  0.8750000   0.8750000   0.0000000 1
