&CONTROL
  prefix = 'bwse2_ang_6_00_n_atoms_546'
  outdir = '../out/'
  verbosity = 'high'
  pseudo_dir = '../pseudo/'
  tprnfor = true
  calculation = 'relax'
/
&SYSTEM
  assume_isolated = '2D'
  ibrav = 4
  nat = 546
  ntyp = 2
  occupations = 'fixed'
  ecutwfc = 30
  ecutrho = 120
  input_dft = 'vdw-df-cx'
  a = 31.718478447113444
  c = 32
/
&ELECTRONS
/
&IONS
/
ATOMIC_SPECIES
  W    183.84   'W_pbe_v1.2.uspp.F.UPF'
  Se   78.960   'Se_pbe_v1.uspp.F.UPF'
ATOMIC_POSITIONS angstrom
  W    -12.89652   25.959721   0.0189569
  W    -12.72224   22.639292   0.0095613
  W    -9.933809   24.450435   0.0136863
  W    -7.145371   26.261579   0.0049984
  W    -9.759531   21.130006   0.0067307
  W    -6.971094   22.941149   0.0111739
  W    -4.182656   24.752293   0.0037952
  W    -1.394218   26.563436   -0.003395
  W    -9.585254   17.809576   -0.000038
  W    -6.796816   19.620720   0.0045614
  W    -4.008379   21.431863   0.0090599
  W    -1.219941   23.243006   0.0060143
  W    1.5684961   25.054150   0.0017315
  W    4.3569338   26.865293   -0.000038
  W    -6.622539   16.300290   0.0017315
  W    -3.834101   18.111433   0.0071452
  W    -1.045664   19.922577   0.0100330
  W    1.7427735   21.733720   0.0071453
  W    4.5312112   23.544864   0.0045614
  W    7.3196488   25.356007   0.0067307
  W    10.108086   27.167150   0.0095613
  W    -6.448262   12.979860   -0.003395
  W    -3.659824   14.791004   0.0060143
  W    -0.871386   16.602147   0.0100330
  W    1.9170508   18.413291   0.0100330
  W    4.7054885   20.224434   0.0090599
  W    7.4939262   22.035577   0.0111739
  W    10.282363   23.846721   0.0136863
  W    13.070801   25.657864   0.0189569
  W    -3.485547   11.470574   0.0037952
  W    -0.697109   13.281718   0.0090599
  W    2.0913282   15.092861   0.0071453
  W    4.8797659   16.904004   0.0060143
  W    7.6682035   18.715148   0.0037952
  W    10.456641   20.526291   0.0049983
  W    13.245078   22.337435   0.0105625
  W    16.033516   24.148578   0.0148226
  W    -3.311269   8.1501452   0.0049983
  W    -0.522832   9.9612886   0.0111740
  W    2.2656056   11.772432   0.0045615
  W    5.0540432   13.583575   0.0017315
  W    7.8424809   15.394718   -0.003395
  W    10.630918   17.205862   -0.006069
  W    13.419356   19.017005   -0.000269
  W    16.207793   20.828149   0.0054177
  W    -0.348554   6.6408591   0.0136864
  W    2.4398829   8.4520024   0.0067308
  W    5.2283206   10.263145   -0.000038
  W    8.0167582   12.074289   -0.008416
  W    10.805195   13.885432   -0.013655
  W    13.593633   15.696576   -0.012509
  W    16.382071   17.507719   -0.006740
  W    19.170508   19.318862   0.0024013
  W    -0.174277   3.3204295   0.0189569
  W    2.6141603   5.1315729   0.0095613
  W    5.4025979   6.9427163   0.0024013
  W    8.1910356   8.7538597   -0.010437
  W    10.979473   10.565003   -0.019410
  W    13.767910   12.376146   -0.020653
  W    16.556348   14.187289   -0.019556
  W    19.344786   15.998433   -0.010437
  W    0.0000000   0.0000000   0.0242275
  W    2.7884376   1.8111433   0.0148226
  W    5.5768753   3.6222867   0.0054177
  W    8.3653129   5.4334301   -0.006740
  W    11.153750   7.2445735   -0.019556
  W    13.942188   9.0557169   -0.024471
  W    16.730625   10.866860   -0.024471
  W    19.519063   12.678003   -0.019410
  W    22.307501   14.489147   -0.008416
  W    5.7511526   0.3018572   0.0105625
  W    8.5395903   2.1130006   -0.000269
  W    11.328028   3.9241440   -0.012509
  W    14.116465   5.7352874   -0.020653
  W    16.904903   7.5464307   -0.024471
  W    19.693341   9.3575741   -0.020653
  W    22.481778   11.168717   -0.013655
  W    11.502305   0.6037144   -0.006069
  W    14.290743   2.4148578   -0.013655
  W    17.079180   4.2260012   -0.019410
  W    19.867618   6.0371446   -0.019556
  W    22.656056   7.8482880   -0.012509
  W    25.444493   9.6594314   -0.006069
  W    17.253458   0.9055716   -0.008416
  W    20.041895   2.7167150   -0.010437
  W    22.830333   4.5278584   -0.006740
  W    25.618771   6.3390018   -0.000269
  W    23.004610   1.2074289   0.0024013
  W    25.793048   3.0185723   0.0054177
  W    28.581486   4.8297157   0.0105625
  W    28.755763   1.5092861   0.0148226
  W    28.930040   1.8111433   6.7856860
  W    25.967325   0.3018572   6.7896455
  W    26.141603   3.6222867   6.7940316
  W    23.178888   2.1130006   6.7999651
  W    20.216173   0.6037144   6.8060866
  W    26.315880   6.9427163   6.7971108
  W    23.353165   5.4334301   6.8066648
  W    20.390450   3.9241440   6.8126681
  W    17.427735   2.4148578   6.8138696
  W    14.465020   0.9055716   6.8086167
  W    23.527442   8.7538597   6.8108082
  W    20.564727   7.2445735   6.8204141
  W    17.602012   5.7352874   6.8215514
  W    14.639297   4.2260012   6.8202597
  W    11.676582   2.7167150   6.8108082
  W    8.7138677   1.2074289   6.7971108
  W    23.701720   12.074289   6.8086167
  W    20.739005   10.565003   6.8202597
  W    17.776290   9.0557169   6.8257698
  W    14.813575   7.5464307   6.8257698
  W    11.850860   6.0371446   6.8204142
  W    8.8881450   4.5278584   6.8066648
  W    5.9254300   3.0185723   6.7940316
  W    2.9627150   1.5092861   6.7856860
  W    0.0000000   0.0000000   6.7773404
  W    20.913282   13.885432   6.8138696
  W    17.950567   12.376146   6.8215514
  W    14.987852   10.866860   6.8257698
  W    12.025137   9.3575741   6.8215514
  W    9.0624224   7.8482880   6.8126681
  W    6.0997073   6.3390018   6.7999651
  W    3.1369923   4.8297157   6.7896455
  W    0.1742773   3.3204295   6.7821813
  W    21.087559   17.205862   6.8060866
  W    18.124844   15.696576   6.8126681
  W    15.162129   14.187289   6.8204141
  W    12.199414   12.678003   6.8202597
  W    9.2366997   11.168717   6.8138696
  W    6.2739847   9.6594314   6.8060866
  W    3.3112697   8.1501452   6.7954125
  W    0.3485547   6.6408591   6.7870221
  W    -2.614160   5.1315729   6.7904937
  W    18.299122   19.017005   6.7999651
  W    15.336407   17.507719   6.8066648
  W    12.373692   15.998433   6.8108082
  W    9.4109771   14.489147   6.8086167
  W    6.4482621   12.979860   6.8035025
  W    3.4855470   11.470574   6.7967219
  W    0.5228320   9.9612886   6.7895598
  W    -2.439882   8.4520024   6.7934818
  W    18.473399   22.337435   6.7896455
  W    15.510684   20.828149   6.7940316
  W    12.547969   19.318862   6.7971108
  W    9.5852544   17.809576   6.7998291
  W    6.6225394   16.300290   6.7984391
  W    3.6598244   14.791004   6.7945832
  W    0.6971094   13.281718   6.7917134
  W    -2.265605   11.772432   6.7957770
  W    -5.228320   10.263145   6.7998292
  W    15.684961   24.148578   6.7856860
  W    12.722246   22.639292   6.7904937
  W    9.7595318   21.130006   6.7934818
  W    6.7968168   19.620720   6.7957769
  W    3.8341017   18.111433   6.7935017
  W    0.8713867   16.602147   6.7908805
  W    -2.091328   15.092861   6.7935017
  W    -5.054043   13.583575   6.7984392
  W    12.896524   25.959721   6.7821813
  W    9.9338091   24.450435   6.7870221
  W    6.9710941   22.941149   6.7895598
  W    4.0083791   21.431863   6.7917134
  W    1.0456641   19.922577   6.7908805
  W    -1.917050   18.413291   6.7908805
  W    -4.879765   16.904004   6.7945833
  W    -7.842480   15.394718   6.8035025
  W    7.1453715   26.261579   6.7954125
  W    4.1826564   24.752293   6.7967219
  W    1.2199414   23.243006   6.7945832
  W    -1.742773   21.733720   6.7935017
  W    -4.705488   20.224434   6.7917133
  W    -7.668203   18.715148   6.7967219
  W    1.3942188   26.563436   6.8035025
  W    -1.568496   25.054150   6.7984391
  W    -4.531211   23.544864   6.7957769
  W    -7.493926   22.035577   6.7895598
  W    -10.45664   20.526291   6.7954125
  W    -4.356933   26.865293   6.7998291
  W    -7.319648   25.356007   6.7934818
  W    -10.28236   23.846721   6.7870221
  W    -10.10808   27.167150   6.7904937
  W    -13.07080   25.657864   6.7821812
  Se   -13.76791   24.249197   1.6949404
  Se   -10.97947   26.060341   1.6945943
  Se   -10.80519   22.739911   1.6901775
  Se   -8.016758   24.551054   1.6897626
  Se   -5.228320   26.362198   1.6828608
  Se   -10.63091   19.419481   1.6826341
  Se   -7.842480   21.230625   1.6887824
  Se   -5.054043   23.041768   1.6888841
  Se   -2.265605   24.852912   1.6849977
  Se   0.5228320   26.664055   1.6724338
  Se   -7.668203   17.910195   1.6840293
  Se   -4.879765   19.721339   1.6913710
  Se   -2.091328   21.532482   1.6915388
  Se   0.6971094   23.343625   1.6885906
  Se   3.4855470   25.154769   1.6840294
  Se   6.2739847   26.965912   1.6826341
  Se   -7.493926   14.589766   1.6724338
  Se   -4.705488   16.400909   1.6885905
  Se   -1.917050   18.212052   1.6930842
  Se   0.8713867   20.023196   1.6930842
  Se   3.6598244   21.834339   1.6913710
  Se   6.4482621   23.645483   1.6887824
  Se   9.2366997   25.456626   1.6901775
  Se   12.025137   27.267769   1.6949404
  Se   -4.531211   13.080480   1.6849977
  Se   -1.742773   14.891623   1.6915388
  Se   1.0456641   16.702766   1.6930842
  Se   3.8341017   18.513910   1.6915388
  Se   6.6225394   20.325053   1.6888841
  Se   9.4109771   22.136197   1.6897625
  Se   12.199414   23.947340   1.6945943
  Se   14.987852   25.758483   1.6976860
  Se   -4.356933   9.7600504   1.6828607
  Se   -1.568496   11.571193   1.6888841
  Se   1.2199414   13.382337   1.6913710
  Se   4.0083791   15.193480   1.6885906
  Se   6.7968168   17.004624   1.6849977
  Se   9.5852544   18.815767   1.6828608
  Se   12.373692   20.626910   1.6864304
  Se   15.162129   22.438054   1.6923331
  Se   -1.394218   8.2507643   1.6897625
  Se   1.3942188   10.061907   1.6887824
  Se   4.1826564   11.873051   1.6840294
  Se   6.9710941   13.684194   1.6724338
  Se   9.7595318   15.495337   1.6699218
  Se   12.547969   17.306481   1.6696569
  Se   15.336407   19.117624   1.6748457
  Se   18.124844   20.928768   1.6866522
  Se   -1.219941   4.9303347   1.6945943
  Se   1.5684961   6.7414781   1.6901775
  Se   4.3569338   8.5526215   1.6826341
  Se   7.1453715   10.363764   1.6687679
  Se   9.9338091   12.174908   1.6577270
  Se   12.722246   13.986051   1.6578686
  Se   15.510684   15.797195   1.6589690
  Se   18.299122   17.608338   1.6704512
  Se   1.7427735   3.4210486   1.6949404
  Se   4.5312112   5.2321920   1.6866522
  Se   7.3196488   7.0433354   1.6704512
  Se   10.108086   8.8544788   1.6577088
  Se   12.896524   10.665622   1.6503313
  Se   15.684961   12.476765   1.6509523
  Se   18.473399   14.287908   1.6577088
  Se   21.261837   16.099052   1.6687679
  Se   1.9170508   0.1006190   1.6976860
  Se   4.7054885   1.9117624   1.6923331
  Se   7.4939262   3.7229058   1.6748456
  Se   10.282363   5.5340492   1.6589690
  Se   13.070801   7.3451926   1.6509523
  Se   15.859239   9.1563360   1.6429356
  Se   18.647676   10.967479   1.6503313
  Se   21.436114   12.778622   1.6577270
  Se   7.6682035   0.4024763   1.6864304
  Se   10.456641   2.2136197   1.6696569
  Se   13.245078   4.0247630   1.6578685
  Se   16.033516   5.8359064   1.6503313
  Se   18.821954   7.6470498   1.6509523
  Se   21.610391   9.4581932   1.6578686
  Se   24.398829   11.269336   1.6699218
  Se   13.419356   0.7043335   1.6699218
  Se   16.207793   2.5154769   1.6577270
  Se   18.996231   4.3266203   1.6577088
  Se   21.784669   6.1377637   1.6589690
  Se   24.573106   7.9489071   1.6696569
  Se   19.170508   1.0061907   1.6687679
  Se   21.958946   2.8173341   1.6704512
  Se   24.747384   4.6284775   1.6748457
  Se   27.535821   6.4396209   1.6864304
  Se   24.921661   1.3080480   1.6866522
  Se   27.710099   3.1191913   1.6923331
  Se   30.672814   1.6099052   1.6976860
  Se   -13.76791   24.249197   -1.666602
  Se   -10.97947   26.060341   -1.666977
  Se   -10.80519   22.739911   -1.671133
  Se   -8.016758   24.551054   -1.671895
  Se   -5.228320   26.362198   -1.676962
  Se   -10.63091   19.419481   -1.676421
  Se   -7.842480   21.230625   -1.673704
  Se   -5.054043   23.041768   -1.674130
  Se   -2.265605   24.852912   -1.676402
  Se   0.5228320   26.664055   -1.683216
  Se   -7.668203   17.910195   -1.676889
  Se   -4.879765   19.721339   -1.673584
  Se   -2.091328   21.532482   -1.673622
  Se   0.6971094   23.343625   -1.675323
  Se   3.4855470   25.154769   -1.676889
  Se   6.2739847   26.965912   -1.676421
  Se   -7.493926   14.589766   -1.683216
  Se   -4.705488   16.400909   -1.675323
  Se   -1.917050   18.212052   -1.673301
  Se   0.8713867   20.023196   -1.673301
  Se   3.6598244   21.834339   -1.673584
  Se   6.4482621   23.645483   -1.673704
  Se   9.2366997   25.456626   -1.671133
  Se   12.025137   27.267769   -1.666602
  Se   -4.531211   13.080480   -1.676402
  Se   -1.742773   14.891623   -1.673622
  Se   1.0456641   16.702766   -1.673301
  Se   3.8341017   18.513910   -1.673622
  Se   6.6225394   20.325053   -1.674130
  Se   9.4109771   22.136197   -1.671895
  Se   12.199414   23.947340   -1.666977
  Se   14.987852   25.758483   -1.663979
  Se   -4.356933   9.7600504   -1.676963
  Se   -1.568496   11.571193   -1.674130
  Se   1.2199414   13.382337   -1.673584
  Se   4.0083791   15.193480   -1.675323
  Se   6.7968168   17.004624   -1.676402
  Se   9.5852544   18.815767   -1.676962
  Se   12.373692   20.626910   -1.672831
  Se   15.162129   22.438054   -1.668029
  Se   -1.394218   8.2507643   -1.671895
  Se   1.3942188   10.061907   -1.673704
  Se   4.1826564   11.873051   -1.676889
  Se   6.9710941   13.684194   -1.683216
  Se   9.7595318   15.495337   -1.683943
  Se   12.547969   17.306481   -1.683953
  Se   15.336407   19.117624   -1.679535
  Se   18.124844   20.928768   -1.673022
  Se   -1.219941   4.9303347   -1.666977
  Se   1.5684961   6.7414781   -1.671133
  Se   4.3569338   8.5526215   -1.676421
  Se   7.1453715   10.363764   -1.684254
  Se   9.9338091   12.174908   -1.690715
  Se   12.722246   13.986051   -1.690656
  Se   15.510684   15.797195   -1.689832
  Se   18.299122   17.608338   -1.683220
  Se   1.7427735   3.4210486   -1.666602
  Se   4.5312112   5.2321920   -1.673022
  Se   7.3196488   7.0433354   -1.683220
  Se   10.108086   8.8544788   -1.690762
  Se   12.896524   10.665622   -1.696638
  Se   15.684961   12.476765   -1.696197
  Se   18.473399   14.287908   -1.690762
  Se   21.261837   16.099052   -1.684253
  Se   1.9170508   0.1006190   -1.663979
  Se   4.7054885   1.9117624   -1.668029
  Se   7.4939262   3.7229058   -1.679535
  Se   10.282363   5.5340492   -1.689832
  Se   13.070801   7.3451926   -1.696197
  Se   15.859239   9.1563360   -1.702562
  Se   18.647676   10.967479   -1.696638
  Se   21.436114   12.778622   -1.690715
  Se   7.6682035   0.4024763   -1.672831
  Se   10.456641   2.2136197   -1.683953
  Se   13.245078   4.0247630   -1.690656
  Se   16.033516   5.8359064   -1.696638
  Se   18.821954   7.6470498   -1.696197
  Se   21.610391   9.4581932   -1.690656
  Se   24.398829   11.269336   -1.683943
  Se   13.419356   0.7043335   -1.683943
  Se   16.207793   2.5154769   -1.690715
  Se   18.996231   4.3266203   -1.690762
  Se   21.784669   6.1377637   -1.689832
  Se   24.573106   7.9489071   -1.683953
  Se   19.170508   1.0061907   -1.684253
  Se   21.958946   2.8173341   -1.683220
  Se   24.747384   4.6284775   -1.679535
  Se   27.535821   6.4396209   -1.672831
  Se   24.921661   1.3080480   -1.673022
  Se   27.710099   3.1191913   -1.668029
  Se   30.672814   1.6099052   -1.663979
  Se   29.801427   0.1006190   8.4608112
  Se   27.012989   1.9117624   8.4655552
  Se   24.050274   0.4024763   8.4716005
  Se   27.187267   5.2321920   8.4704929
  Se   24.224552   3.7229058   8.4805066
  Se   21.261837   2.2136197   8.4859929
  Se   18.299122   0.7043335   8.4870541
  Se   24.398829   7.0433354   8.4846952
  Se   21.436114   5.5340492   8.4945209
  Se   18.473399   4.0247630   8.4965872
  Se   15.510684   2.5154769   8.4977562
  Se   12.547969   1.0061907   8.4873602
  Se   24.573106   10.363764   8.4873602
  Se   21.610391   8.8544788   8.4969813
  Se   18.647676   7.3451926   8.5044488
  Se   15.684961   5.8359064   8.5060665
  Se   12.722246   4.3266203   8.4969813
  Se   9.7595318   2.8173341   8.4846952
  Se   6.7968168   1.3080480   8.4704929
  Se   21.784669   12.174908   8.4977562
  Se   18.821954   10.665622   8.5060665
  Se   15.859239   9.1563360   8.5143768
  Se   12.896524   7.6470498   8.5044488
  Se   9.9338091   6.1377637   8.4945209
  Se   6.9710941   4.6284775   8.4805066
  Se   4.0083791   3.1191913   8.4655552
  Se   1.0456641   1.6099052   8.4608112
  Se   21.958946   15.495337   8.4870541
  Se   18.996231   13.986051   8.4965872
  Se   16.033516   12.476765   8.5044488
  Se   13.070801   10.967479   8.5060665
  Se   10.108086   9.4581932   8.4965872
  Se   7.1453715   7.9489071   8.4859929
  Se   4.1826564   6.4396209   8.4716005
  Se   1.2199414   4.9303347   8.4637547
  Se   -1.742773   3.4210486   8.4632461
  Se   19.170508   17.306481   8.4859929
  Se   16.207793   15.797195   8.4945209
  Se   13.245078   14.287908   8.4969813
  Se   10.282363   12.778622   8.4977562
  Se   7.3196488   11.269336   8.4870541
  Se   4.3569338   9.7600504   8.4760933
  Se   1.3942188   8.2507643   8.4692134
  Se   -1.568496   6.7414781   8.4675525
  Se   19.344786   20.626910   8.4716005
  Se   16.382071   19.117624   8.4805066
  Se   13.419356   17.608338   8.4846952
  Se   10.456641   16.099052   8.4873602
  Se   7.4939262   14.589766   8.4859858
  Se   4.5312112   13.080480   8.4753263
  Se   1.5684961   11.571193   8.4717581
  Se   -1.394218   10.061907   8.4704660
  Se   -4.356933   8.5526215   8.4744813
  Se   16.556348   22.438054   8.4655552
  Se   13.593633   20.928768   8.4704929
  Se   10.630918   19.419481   8.4744813
  Se   7.6682035   17.910195   8.4754763
  Se   4.7054885   16.400909   8.4732153
  Se   1.7427735   14.891623   8.4705982
  Se   -1.219941   13.382337   8.4704625
  Se   -4.182656   11.873051   8.4754763
  Se   16.730625   25.758483   8.4608112
  Se   13.767910   24.249197   8.4632461
  Se   10.805195   22.739911   8.4675525
  Se   7.8424809   21.230625   8.4704660
  Se   4.8797659   19.721339   8.4704625
  Se   1.9170508   18.212052   8.4698491
  Se   -1.045664   16.702766   8.4698491
  Se   -4.008379   15.193480   8.4732153
  Se   -6.971094   13.684194   8.4859858
  Se   10.979473   26.060341   8.4637547
  Se   8.0167582   24.551054   8.4692134
  Se   5.0540432   23.041768   8.4717581
  Se   2.0913282   21.532482   8.4705982
  Se   -0.871386   20.023196   8.4698491
  Se   -3.834101   18.513910   8.4705983
  Se   -6.796816   17.004624   8.4753263
  Se   5.2283206   26.362198   8.4760933
  Se   2.2656056   24.852912   8.4753263
  Se   -0.697109   23.343625   8.4732153
  Se   -3.659824   21.834339   8.4704625
  Se   -6.622539   20.325053   8.4717581
  Se   -9.585254   18.815767   8.4760933
  Se   -0.522832   26.664055   8.4859858
  Se   -3.485547   25.154769   8.4754763
  Se   -6.448262   23.645483   8.4704660
  Se   -9.410977   22.136197   8.4692134
  Se   -6.273984   26.965912   8.4744813
  Se   -9.236699   25.456626   8.4675525
  Se   -12.19941   23.947340   8.4637547
  Se   -12.02513   27.267769   8.4632461
  Se   29.801427   0.1006190   5.1081932
  Se   27.012989   1.9117624   5.1118479
  Se   24.050274   0.4024763   5.1162609
  Se   27.187267   5.2321920   5.1160247
  Se   24.224552   3.7229058   5.1234013
  Se   21.261837   2.2136197   5.1274026
  Se   18.299122   0.7043335   5.1271440
  Se   24.398829   7.0433354   5.1265404
  Se   21.436114   5.5340492   5.1340539
  Se   18.473399   4.0247630   5.1348321
  Se   15.510684   2.5154769   5.1346073
  Se   12.547969   1.0061907   5.1274600
  Se   24.573106   10.363764   5.1274600
  Se   21.610391   8.8544788   5.1349034
  Se   18.647676   7.3451926   5.1416277
  Se   15.684961   5.8359064   5.1419043
  Se   12.722246   4.3266203   5.1349034
  Se   9.7595318   2.8173341   5.1265404
  Se   6.7968168   1.3080480   5.1160247
  Se   21.784669   12.174908   5.1346072
  Se   18.821954   10.665622   5.1419043
  Se   15.859239   9.1563360   5.1492014
  Se   12.896524   7.6470498   5.1416277
  Se   9.9338091   6.1377637   5.1340539
  Se   6.9710941   4.6284775   5.1234013
  Se   4.0083791   3.1191913   5.1118479
  Se   1.0456641   1.6099052   5.1081932
  Se   21.958946   15.495337   5.1271441
  Se   18.996231   13.986051   5.1348320
  Se   16.033516   12.476765   5.1416277
  Se   13.070801   10.967479   5.1419043
  Se   10.108086   9.4581932   5.1348321
  Se   7.1453715   7.9489071   5.1274026
  Se   4.1826564   6.4396209   5.1162609
  Se   1.2199414   4.9303347   5.1106005
  Se   -1.742773   3.4210486   5.1102699
  Se   19.170508   17.306481   5.1274026
  Se   16.207793   15.797195   5.1340539
  Se   13.245078   14.287908   5.1349034
  Se   10.282363   12.778622   5.1346073
  Se   7.3196488   11.269336   5.1271441
  Se   4.3569338   9.7600504   5.1195012
  Se   1.3942188   8.2507643   5.1146626
  Se   -1.568496   6.7414781   5.1139184
  Se   19.344786   20.626910   5.1162609
  Se   16.382071   19.117624   5.1234013
  Se   13.419356   17.608338   5.1265404
  Se   10.456641   16.099052   5.1274600
  Se   7.4939262   14.589766   5.1254827
  Se   4.5312112   13.080480   5.1181200
  Se   1.5684961   11.571193   5.1158408
  Se   -1.394218   10.061907   5.1154836
  Se   -4.356933   8.5526215   5.1188811
  Se   16.556348   22.438054   5.1118479
  Se   13.593633   20.928768   5.1160247
  Se   10.630918   19.419481   5.1188811
  Se   7.6682035   17.910195   5.1182980
  Se   4.7054885   16.400909   5.1157946
  Se   1.7427735   14.891623   5.1141024
  Se   -1.219941   13.382337   5.1141476
  Se   -4.182656   11.873051   5.1182980
  Se   16.730625   25.758483   5.1081932
  Se   13.767910   24.249197   5.1102699
  Se   10.805195   22.739911   5.1139184
  Se   7.8424809   21.230625   5.1154836
  Se   4.8797659   19.721339   5.1141476
  Se   1.9170508   18.212052   5.1130683
  Se   -1.045664   16.702766   5.1130683
  Se   -4.008379   15.193480   5.1157946
  Se   -6.971094   13.684194   5.1254827
  Se   10.979473   26.060341   5.1106005
  Se   8.0167582   24.551054   5.1146625
  Se   5.0540432   23.041768   5.1158408
  Se   2.0913282   21.532482   5.1141024
  Se   -0.871386   20.023196   5.1130683
  Se   -3.834101   18.513910   5.1141024
  Se   -6.796816   17.004624   5.1181201
  Se   5.2283206   26.362198   5.1195012
  Se   2.2656056   24.852912   5.1181200
  Se   -0.697109   23.343625   5.1157946
  Se   -3.659824   21.834339   5.1141476
  Se   -6.622539   20.325053   5.1158408
  Se   -9.585254   18.815767   5.1195013
  Se   -0.522832   26.664055   5.1254827
  Se   -3.485547   25.154769   5.1182980
  Se   -6.448262   23.645483   5.1154836
  Se   -9.410977   22.136197   5.1146625
  Se   -6.273984   26.965912   5.1188811
  Se   -9.236699   25.456626   5.1139184
  Se   -12.19941   23.947340   5.1106005
  Se   -12.02513   27.267769   5.1102699
K_POINTS automatic
  1 1 1 1 1 1