&CONTROL
  prefix = 'bwse2_ang_9_43_n_atoms_222'
  outdir = '../out/'
  verbosity = 'high'
  pseudo_dir = '../pseudo/'
  tprnfor = true
  calculation = 'relax'
/
&SYSTEM
  assume_isolated = '2D'
  ibrav = 4
  nat = 222
  ntyp = 2
  occupations = 'fixed'
  ecutwfc = 30
  ecutrho = 120
  input_dft = 'vdw-df-cx'
  a = 20.22518541324158
  c = 32
/
&ELECTRONS
/
&IONS
/
ATOMIC_SPECIES
  W    183.84   'W_pbe_v1.2.uspp.F.UPF'
  Se   78.960   'Se_pbe_v1.uspp.F.UPF'
ATOMIC_POSITIONS angstrom
  W    -7.106146   16.095346   0.0163309
  W    -6.832832   12.781598   0.0043176
  W    -4.099699   14.675169   0.0114888
  W    -1.366566   16.568739   -0.001983
  W    -3.826386   11.361421   0.0035064
  W    -1.093253   13.254991   0.0100330
  W    1.6398798   15.148561   0.0035064
  W    4.3730130   17.042131   0.0043176
  W    -3.553073   8.0476733   -0.001983
  W    -0.819939   9.9412435   0.0100330
  W    1.9131932   11.834813   0.0100330
  W    4.6463263   13.728383   0.0114888
  W    7.3794595   15.621954   0.0163309
  W    -0.546626   6.6274957   0.0114889
  W    2.1865065   8.5210659   0.0035064
  W    4.9196396   10.414636   -0.001983
  W    7.6527728   12.308206   0.0007848
  W    10.385906   14.201776   0.0094607
  W    -0.273313   3.3137478   0.0163309
  W    2.4598198   5.2073180   0.0043176
  W    5.1929530   7.1008882   -0.010269
  W    7.9260861   8.9944584   -0.015833
  W    10.659219   10.888028   -0.008541
  W    0.0000000   0.0000000   0.0242275
  W    2.7331331   1.8935702   0.0094607
  W    5.4662663   3.7871404   -0.008541
  W    8.1993994   5.6807106   -0.024471
  W    10.932532   7.5742808   -0.024471
  W    13.665665   9.4678510   -0.010269
  W    5.7395796   0.4733925   0.0007848
  W    8.4727128   2.3669627   -0.015833
  W    11.205845   4.2605329   -0.024471
  W    13.938979   6.1541031   -0.015833
  W    11.479159   0.9467851   -0.010269
  W    14.212292   2.8403553   -0.008541
  W    16.945425   4.7339255   0.0007848
  W    17.218738   1.4201776   0.0094607
  W    17.492052   1.8935702   6.7904342
  W    14.485605   0.4733925   6.7992073
  W    14.758919   3.7871404   6.8086170
  W    11.752472   2.3669627   6.8162349
  W    8.7460261   0.9467851   6.8106585
  W    15.032232   7.1008882   6.8106585
  W    12.025785   5.6807106   6.8257698
  W    9.0193394   4.2605329   6.8257698
  W    6.0128929   2.8403553   6.8086171
  W    3.0064464   1.4201776   6.7904342
  W    0.0000000   0.0000000   6.7773404
  W    12.299099   8.9944584   6.8162349
  W    9.2926527   7.5742808   6.8257698
  W    6.2862062   6.1541031   6.8162349
  W    3.2797597   4.7339255   6.7992073
  W    0.2733133   3.3137478   6.7846103
  W    12.572412   12.308206   6.7992073
  W    9.5659660   10.888028   6.8086170
  W    6.5595195   9.4678510   6.8106585
  W    3.5530731   8.0476733   6.8022193
  W    0.5466266   6.6274957   6.7892951
  W    -2.459819   5.2073180   6.7955931
  W    9.8392793   14.201776   6.7904342
  W    6.8328329   12.781598   6.7955931
  W    3.8263864   11.361421   6.7968096
  W    0.8199399   9.9412435   6.7908805
  W    -2.186506   8.5210659   6.7968096
  W    7.1061462   16.095346   6.7846103
  W    4.0996997   14.675169   6.7892951
  W    1.0932532   13.254991   6.7908805
  W    -1.913193   11.834813   6.7908805
  W    -4.919639   10.414636   6.8022193
  W    1.3665665   16.568739   6.8022193
  W    -1.639879   15.148561   6.7968096
  W    -4.646326   13.728383   6.7892951
  W    -4.373013   17.042131   6.7955931
  W    -7.379459   15.621954   6.7846103
  Se   -7.926086   14.359574   1.6914498
  Se   -5.192953   16.253144   1.6910869
  Se   -4.919639   12.939396   1.6895244
  Se   -2.186506   14.832966   1.6895825
  Se   0.5466266   16.726536   1.6741322
  Se   -4.646326   9.6256485   1.6741322
  Se   -1.913193   11.519218   1.6930842
  Se   0.8199399   13.412788   1.6930842
  Se   3.5530731   15.306359   1.6895245
  Se   6.2862062   17.199929   1.6914498
  Se   -1.639879   8.2054708   1.6895825
  Se   1.0932532   10.099041   1.6930842
  Se   3.8263864   11.992611   1.6895825
  Se   6.5595195   13.886181   1.6910869
  Se   9.2926527   15.779751   1.6976860
  Se   -1.366566   4.8917230   1.6910869
  Se   1.3665665   6.7852932   1.6895245
  Se   4.0996997   8.6788634   1.6741322
  Se   6.8328329   10.572433   1.6715589
  Se   9.5659660   12.466003   1.6768777
  Se   1.6398798   3.4715453   1.6914498
  Se   4.3730130   5.3651155   1.6714937
  Se   7.1061462   7.2586857   1.6543213
  Se   9.8392793   9.1522559   1.6553538
  Se   12.572412   11.045826   1.6714937
  Se   1.9131932   0.1577975   1.6976860
  Se   4.6463263   2.0513677   1.6768777
  Se   7.3794595   3.9449379   1.6553538
  Se   10.112592   5.8385081   1.6429356
  Se   12.845725   7.7320783   1.6543213
  Se   7.6527728   0.6311900   1.6715589
  Se   10.385906   2.5247602   1.6543213
  Se   13.119039   4.4183304   1.6553538
  Se   15.852172   6.3119006   1.6715589
  Se   13.392352   1.1045826   1.6714937
  Se   16.125485   2.9981528   1.6768777
  Se   19.131932   1.5779751   1.6976860
  Se   -7.926086   14.359574   -1.669901
  Se   -5.192953   16.253144   -1.670639
  Se   -4.919639   12.939396   -1.673553
  Se   -2.186506   14.832966   -1.674026
  Se   0.5466266   16.726536   -1.682459
  Se   -4.646326   9.6256485   -1.682459
  Se   -1.913193   11.519218   -1.673301
  Se   0.8199399   13.412788   -1.673301
  Se   3.5530731   15.306359   -1.673553
  Se   6.2862062   17.199929   -1.669901
  Se   -1.639879   8.2054708   -1.674026
  Se   1.0932532   10.099041   -1.673301
  Se   3.8263864   11.992611   -1.674026
  Se   6.5595195   13.886181   -1.670639
  Se   9.2926527   15.779751   -1.663979
  Se   -1.366566   4.8917230   -1.670639
  Se   1.3665665   6.7852932   -1.673553
  Se   4.0996997   8.6788634   -1.682459
  Se   6.8328329   10.572433   -1.683016
  Se   9.5659660   12.466003   -1.678062
  Se   1.6398798   3.4715453   -1.669901
  Se   4.3730130   5.3651155   -1.682666
  Se   7.1061462   7.2586857   -1.693440
  Se   9.8392793   9.1522559   -1.692706
  Se   12.572412   11.045826   -1.682666
  Se   1.9131932   0.1577975   -1.663979
  Se   4.6463263   2.0513677   -1.678062
  Se   7.3794595   3.9449379   -1.692706
  Se   10.112592   5.8385081   -1.702562
  Se   12.845725   7.7320783   -1.693440
  Se   7.6527728   0.6311900   -1.683016
  Se   10.385906   2.5247602   -1.693440
  Se   13.119039   4.4183304   -1.692706
  Se   15.852172   6.3119006   -1.683016
  Se   13.392352   1.1045826   -1.682666
  Se   16.125485   2.9981528   -1.678062
  Se   19.131932   1.5779751   -1.663979
  Se   18.311992   0.1577975   8.4608112
  Se   15.578859   2.0513677   8.4787605
  Se   12.572412   0.6311900   8.4852110
  Se   15.852172   5.3651155   8.4842573
  Se   12.845725   3.9449379   8.4989494
  Se   9.8392793   2.5247602   8.5016376
  Se   6.8328329   1.1045826   8.4842573
  Se   13.119039   7.2586857   8.5016376
  Se   10.112592   5.8385081   8.5143768
  Se   7.1061462   4.4183304   8.4989494
  Se   4.0996997   2.9981528   8.4787605
  Se   1.0932532   1.5779751   8.4608112
  Se   13.392352   10.572433   8.4852110
  Se   10.385906   9.1522559   8.4989494
  Se   7.3794595   7.7320783   8.5016376
  Se   4.3730130   6.3119006   8.4852110
  Se   1.3665665   4.8917230   8.4680395
  Se   -1.639879   3.4715453   8.4663145
  Se   10.659219   12.466003   8.4787605
  Se   7.6527728   11.045826   8.4842573
  Se   4.6463263   9.6256485   8.4847221
  Se   1.6398798   8.2054708   8.4715434
  Se   -1.366566   6.7852932   8.4701157
  Se   10.932532   15.779751   8.4608112
  Se   7.9260861   14.359574   8.4663145
  Se   4.9196396   12.939396   8.4701157
  Se   1.9131932   11.519218   8.4698491
  Se   -1.093253   10.099041   8.4698491
  Se   -4.099699   8.6788634   8.4847221
  Se   5.1929530   16.253144   8.4680395
  Se   2.1865065   14.832966   8.4715434
  Se   -0.819939   13.412788   8.4698491
  Se   -3.826386   11.992611   8.4715435
  Se   -0.546626   16.726536   8.4847221
  Se   -3.553073   15.306359   8.4701157
  Se   -6.559519   13.886181   8.4680394
  Se   -6.286206   17.199929   8.4663145
  Se   18.311992   0.1577975   5.1081932
  Se   15.578859   2.0513677   5.1220130
  Se   12.572412   0.6311900   5.1262197
  Se   15.852172   5.3651155   5.1258349
  Se   12.845725   3.9449379   5.1374878
  Se   9.8392793   2.5247602   5.1379478
  Se   6.8328329   1.1045826   5.1258349
  Se   13.119039   7.2586857   5.1379478
  Se   10.112592   5.8385081   5.1492014
  Se   7.1061462   4.4183304   5.1374878
  Se   4.0996997   2.9981528   5.1220130
  Se   1.0932532   1.5779751   5.1081932
  Se   13.392352   10.572433   5.1262197
  Se   10.385906   9.1522559   5.1374878
  Se   7.3794595   7.7320783   5.1379478
  Se   4.3730130   6.3119006   5.1262197
  Se   1.3665665   4.8917230   5.1136560
  Se   -1.639879   3.4715453   5.1129138
  Se   10.659219   12.466003   5.1220130
  Se   7.6527728   11.045826   5.1258349
  Se   4.6463263   9.6256485   5.1244457
  Se   1.6398798   8.2054708   5.1154142
  Se   -1.366566   6.7852932   5.1149899
  Se   10.932532   15.779751   5.1081932
  Se   7.9260861   14.359574   5.1129138
  Se   4.9196396   12.939396   5.1149899
  Se   1.9131932   11.519218   5.1130683
  Se   -1.093253   10.099041   5.1130683
  Se   -4.099699   8.6788634   5.1244457
  Se   5.1929530   16.253144   5.1136560
  Se   2.1865065   14.832966   5.1154142
  Se   -0.819939   13.412788   5.1130683
  Se   -3.826386   11.992611   5.1154142
  Se   -0.546626   16.726536   5.1244457
  Se   -3.553073   15.306359   5.1149899
  Se   -6.559519   13.886181   5.1136560
  Se   -6.286206   17.199929   5.1129138
K_POINTS automatic
  1 1 1 1 1 1