&CONTROL
  prefix = 'bwse2_ang_4_40_n_atoms_1014'
  outdir = '../out/'
  verbosity = 'high'
  pseudo_dir = '../pseudo/'
  tprnfor = true
  calculation = 'relax'
/
&SYSTEM
  assume_isolated = '2D'
  ibrav = 4
  nat = 1014
  ntyp = 2
  occupations = 'fixed'
  ecutwfc = 30
  ecutrho = 120
  input_dft = 'vdw-df-cx'
  a = 43.225
  c = 32
/
&ELECTRONS
/
&IONS
/
ATOMIC_SPECIES
  W    183.84   'W_pbe_v1.2.uspp.F.UPF'
  Se   78.960   'Se_pbe_v1.uspp.F.UPF'
ATOMIC_POSITIONS angstrom
  W    -18.67115   35.883429   0.0202803
  W    -18.54326   32.560889   0.0133933
  W    -15.72980   34.332910   0.0163331
  W    -12.91634   36.104932   0.0112529
  W    -15.60192   31.010371   0.0095564
  W    -12.78846   32.782392   0.0126805
  W    -9.975000   34.554413   0.0078619
  W    -7.161538   36.326434   -0.000025
  W    -15.47403   27.687831   0.0047010
  W    -12.66057   29.459852   0.0078252
  W    -9.847115   31.231873   0.0110485
  W    -7.033653   33.003895   0.0072816
  W    -4.220192   34.775916   -0.000606
  W    -1.406730   36.547937   -0.004008
  W    -12.53269   26.137312   0.0029698
  W    -9.719230   27.909334   0.0061827
  W    -6.905769   29.681355   0.0094317
  W    -4.092307   31.453376   0.0067013
  W    -1.278846   33.225397   0.0028905
  W    1.5346153   34.997418   -0.000165
  W    4.3480769   36.769440   -0.003659
  W    -12.40480   22.814773   -0.003659
  W    -9.591346   24.586794   0.0018332
  W    -6.777884   26.358815   0.0054933
  W    -3.964423   28.130836   0.0091534
  W    -1.150961   29.902857   0.0085422
  W    1.6625000   31.674879   0.0051877
  W    4.4759615   33.446900   0.0018332
  W    7.2894230   35.218921   0.0029698
  W    10.102884   36.990942   0.0047010
  W    -9.463461   21.264254   -0.000165
  W    -6.650000   23.036275   0.0051877
  W    -3.836538   24.808296   0.0088478
  W    -1.023076   26.580318   0.0100330
  W    1.7903846   28.352339   0.0088478
  W    4.6038461   30.124360   0.0054933
  W    7.4173076   31.896381   0.0061827
  W    10.230769   33.668403   0.0078252
  W    13.044230   35.440424   0.0095564
  W    15.857692   37.212445   0.0133933
  W    -9.335576   17.941714   -0.004008
  W    -6.522115   19.713735   0.0028904
  W    -3.708653   21.485757   0.0085422
  W    -0.895192   23.257778   0.0100330
  W    1.9182692   25.029799   0.0100330
  W    4.7317307   26.801820   0.0091534
  W    7.5451923   28.573842   0.0094317
  W    10.358653   30.345863   0.0110485
  W    13.172115   32.117884   0.0126805
  W    15.985576   33.889905   0.0163331
  W    18.799038   35.661926   0.0202803
  W    -6.394230   16.391196   -0.000606
  W    -3.580769   18.163217   0.0067012
  W    -0.767307   19.935238   0.0091535
  W    2.0461538   21.707259   0.0088478
  W    4.8596153   23.479281   0.0085422
  W    7.6730769   25.251302   0.0067013
  W    10.486538   27.023323   0.0072816
  W    13.300000   28.795344   0.0078619
  W    16.113461   30.567365   0.0112528
  W    18.926923   32.339387   0.0142925
  W    21.740384   34.111408   0.0173321
  W    -6.266346   13.068656   -0.000026
  W    -3.452884   14.840677   0.0072815
  W    -0.639423   16.612698   0.0094317
  W    2.1740384   18.384720   0.0054933
  W    4.9875000   20.156741   0.0051877
  W    7.8009615   21.928762   0.0028905
  W    10.614423   23.700783   -0.000606
  W    13.427884   25.472804   -0.000025
  W    16.241346   27.244826   0.0031063
  W    19.054807   29.016847   0.0073331
  W    21.868269   30.788868   0.0104367
  W    -3.325000   11.518137   0.0078618
  W    -0.511538   13.290159   0.0110486
  W    2.3019230   15.062180   0.0061827
  W    5.1153846   16.834201   0.0018332
  W    7.9288461   18.606222   -0.000165
  W    10.742307   20.378243   -0.004008
  W    13.555769   22.150265   -0.007852
  W    16.369230   23.922286   -0.005086
  W    19.182692   25.694307   -0.000859
  W    21.996153   27.466328   0.0033668
  W    24.809615   29.238349   0.0065062
  W    -3.197115   8.1955981   0.0112528
  W    -0.383653   9.9676193   0.0126806
  W    2.4298076   11.739640   0.0078252
  W    5.2432692   13.511661   0.0029698
  W    8.0567307   15.283682   -0.003659
  W    10.870192   17.055704   -0.007602
  W    13.683653   18.827725   -0.011545
  W    16.497115   20.599746   -0.013620
  W    19.310576   22.371767   -0.009991
  W    22.124038   24.143788   -0.005875
  W    24.937500   25.915810   0.0005114
  W    -0.255769   6.6450795   0.0163332
  W    2.5576923   8.4171007   0.0095564
  W    5.3711538   10.189121   0.0047010
  W    8.1846153   11.961143   -0.001637
  W    10.998076   13.733164   -0.011323
  W    13.811538   15.505185   -0.015672
  W    16.625000   17.277206   -0.018053
  W    19.438461   19.049228   -0.018474
  W    22.251923   20.821249   -0.015272
  W    25.065384   22.593270   -0.009174
  W    27.878846   24.365291   -0.001637
  W    -0.127884   3.3225397   0.0202803
  W    2.6855769   5.0945609   0.0133933
  W    5.4990384   6.8665821   0.0065062
  W    8.3125000   8.6386034   0.0005114
  W    11.125961   10.410624   -0.009174
  W    13.939423   12.182645   -0.018859
  W    16.752884   13.954667   -0.022487
  W    19.566346   15.726688   -0.022908
  W    22.379807   17.498709   -0.023329
  W    25.193269   19.270730   -0.018859
  W    28.006730   21.042751   -0.011323
  W    0.0000000   0.0000000   0.0242275
  W    2.8134615   1.7720212   0.0173321
  W    5.6269230   3.5440424   0.0104367
  W    8.4403846   5.3160636   0.0033668
  W    11.253846   7.0880848   -0.005875
  W    14.067307   8.8601060   -0.015272
  W    16.880769   10.632127   -0.023329
  W    19.694230   12.404148   -0.024471
  W    22.507692   14.176169   -0.024471
  W    25.321153   15.948190   -0.022487
  W    28.134615   17.720212   -0.015672
  W    30.948076   19.492233   -0.007602
  W    5.7548076   0.2215026   0.0142925
  W    8.5682692   1.9935238   0.0073331
  W    11.381730   3.7655450   -0.000859
  W    14.195192   5.5375662   -0.009991
  W    17.008653   7.3095874   -0.018474
  W    19.822115   9.0816087   -0.022908
  W    22.635576   10.853629   -0.024471
  W    25.449038   12.625651   -0.022908
  W    28.262500   14.397672   -0.018053
  W    31.075961   16.169693   -0.011545
  W    11.509615   0.4430053   0.0031064
  W    14.323076   2.2150265   -0.005086
  W    17.136538   3.9870477   -0.013620
  W    19.950000   5.7590689   -0.018053
  W    22.763461   7.5310901   -0.022487
  W    25.576923   9.3031113   -0.023329
  W    28.390384   11.075132   -0.018474
  W    31.203846   12.847153   -0.013620
  W    34.017307   14.619174   -0.007852
  W    17.264423   0.6645079   -0.007852
  W    20.077884   2.4365291   -0.011545
  W    22.891346   4.2085503   -0.015672
  W    25.704807   5.9805715   -0.018859
  W    28.518269   7.7525927   -0.015272
  W    31.331730   9.5246140   -0.009991
  W    34.145192   11.296635   -0.005086
  W    23.019230   0.8860106   -0.007602
  W    25.832692   2.6580318   -0.011323
  W    28.646153   4.4300530   -0.009174
  W    31.459615   6.2020742   -0.005875
  W    34.273076   7.9740954   -0.000859
  W    37.086538   9.7461166   0.0031063
  W    28.774038   1.1075132   -0.001637
  W    31.587500   2.8795344   0.0005114
  W    34.400961   4.6515556   0.0033668
  W    37.214423   6.4235768   0.0073331
  W    34.528846   1.3290159   0.0065062
  W    37.342307   3.1010371   0.0104367
  W    40.155769   4.8730583   0.0142924
  W    40.283653   1.5505185   0.0173321
  W    40.411538   1.7720212   6.7834613
  W    37.470192   0.2215026   6.7862911
  W    37.598076   3.5440424   6.7895821
  W    34.656730   1.9935238   6.7924937
  W    31.715384   0.4430053   6.7969736
  W    37.725961   6.8665821   6.7931439
  W    34.784615   5.3160636   6.7959348
  W    31.843269   3.7655450   6.8004146
  W    28.901923   2.2150265   6.8048944
  W    25.960576   0.6645079   6.8078479
  W    34.912500   8.6386034   6.7990025
  W    31.971153   7.0880848   6.8057287
  W    29.029807   5.5375662   6.8100062
  W    26.088461   3.9870477   6.8137925
  W    23.147115   2.4365291   6.8116768
  W    20.205769   0.8860106   6.8077160
  W    35.040384   11.961143   6.8014403
  W    32.099038   10.410624   6.8093941
  W    29.157692   8.8601060   6.8158066
  W    26.216346   7.3095874   6.8191460
  W    23.275000   5.7590689   6.8186850
  W    20.333653   4.2085503   6.8162655
  W    17.392307   2.6580318   6.8118318
  W    14.450961   1.1075132   6.8014403
  W    32.226923   13.733164   6.8118319
  W    29.285576   12.182645   6.8197856
  W    26.344230   10.632127   6.8244996
  W    23.402884   9.0816087   6.8240386
  W    20.461538   7.5310901   6.8235776
  W    17.520192   5.9805715   6.8197856
  W    14.578846   4.4300530   6.8093941
  W    11.637500   2.8795344   6.7990025
  W    8.6961538   1.3290159   6.7931439
  W    32.354807   17.055704   6.8077160
  W    29.413461   15.505185   6.8162655
  W    26.472115   13.954667   6.8235776
  W    23.530769   12.404148   6.8257698
  W    20.589423   10.853629   6.8257698
  W    17.648076   9.3031113   6.8244996
  W    14.706730   7.7525927   6.8158066
  W    11.765384   6.2020742   6.8057287
  W    8.8240384   4.6515556   6.7959348
  W    5.8826923   3.1010371   6.7895821
  W    2.9413461   1.5505185   6.7834613
  W    0.0000000   0.0000000   6.7773404
  W    29.541346   18.827725   6.8116768
  W    26.600000   17.277206   6.8186850
  W    23.658653   15.726688   6.8240386
  W    20.717307   14.176169   6.8257698
  W    17.775961   12.625651   6.8240386
  W    14.834615   11.075132   6.8191460
  W    11.893269   9.5246140   6.8100062
  W    8.9519230   7.9740954   6.8004146
  W    6.0105769   6.4235768   6.7924937
  W    3.0692307   4.8730583   6.7862912
  W    0.1278846   3.3225397   6.7809620
  W    29.669230   22.150265   6.8078479
  W    26.727884   20.599746   6.8137925
  W    23.786538   19.049228   6.8191460
  W    20.845192   17.498709   6.8244996
  W    17.903846   15.948190   6.8235776
  W    14.962500   14.397672   6.8186850
  W    12.021153   12.847153   6.8137925
  W    9.0798076   11.296635   6.8048945
  W    6.1384615   9.7461166   6.7969736
  W    3.1971153   8.1955981   6.7891210
  W    0.2557692   6.6450795   6.7845836
  W    -2.685576   5.0945609   6.7870530
  W    26.855769   23.922286   6.8048944
  W    23.914423   22.371767   6.8100062
  W    20.973076   20.821249   6.8158066
  W    18.031730   19.270730   6.8197856
  W    15.090384   17.720212   6.8162655
  W    12.149038   16.169693   6.8116768
  W    9.2076923   14.619174   6.8078479
  W    6.2663461   13.068656   6.8003005
  W    3.3250000   11.518137   6.7927047
  W    0.3836538   9.9676193   6.7879830
  W    -2.557692   8.4171007   6.7905940
  W    26.983653   27.244826   6.7969735
  W    24.042307   25.694307   6.8004146
  W    21.100961   24.143788   6.8057286
  W    18.159615   22.593270   6.8093941
  W    15.218269   21.042751   6.8118318
  W    12.276923   19.492233   6.8077160
  W    9.3355769   17.941714   6.8040572
  W    6.3942307   16.391196   6.8009572
  W    3.4528846   14.840677   6.7933615
  W    0.5115384   13.290159   6.7896629
  W    -2.429807   11.739640   6.7925296
  W    -5.371153   10.189121   6.7951405
  W    24.170192   29.016847   6.7924937
  W    21.228846   27.466328   6.7959348
  W    18.287500   25.915810   6.7990025
  W    15.346153   24.365291   6.8014403
  W    12.404807   22.814773   6.8037551
  W    9.4634615   21.264254   6.8002665
  W    6.5221153   19.713735   6.7975200
  W    3.5807692   18.163217   6.7940182
  W    0.6394230   16.612698   6.7913039
  W    -2.301923   15.062180   6.7942360
  W    -5.243269   13.511661   6.7970761
  W    24.298076   32.339387   6.7862911
  W    21.356730   30.788868   6.7895821
  W    18.415384   29.238349   6.7931439
  W    15.474038   27.687831   6.7951405
  W    12.532692   26.137312   6.7970761
  W    9.5913461   24.586794   6.7983305
  W    6.6500000   23.036275   6.7952816
  W    3.7086538   21.485757   6.7922327
  W    0.7673076   19.935238   6.7916754
  W    -2.174038   18.384720   6.7950029
  W    -5.115384   16.834201   6.7983305
  W    -8.056730   15.283682   6.8037551
  W    21.484615   34.111408   6.7834613
  W    18.543269   32.560889   6.7870530
  W    15.601923   31.010371   6.7905940
  W    12.660576   29.459852   6.7925296
  W    9.7192307   27.909334   6.7942359
  W    6.7778846   26.358815   6.7950029
  W    3.8365384   24.808296   6.7919540
  W    0.8951923   23.257778   6.7908805
  W    -2.046153   21.707259   6.7919540
  W    -4.987500   20.156741   6.7952816
  W    -7.928846   18.606222   6.8002665
  W    18.671153   35.883429   6.7809620
  W    15.729807   34.332910   6.7845836
  W    12.788461   32.782392   6.7879830
  W    9.8471153   31.231873   6.7896629
  W    6.9057692   29.681355   6.7913039
  W    3.9644230   28.130836   6.7916754
  W    1.0230769   26.580318   6.7908805
  W    -1.918269   25.029799   6.7908805
  W    -4.859615   23.479281   6.7922327
  W    -7.800961   21.928762   6.7975201
  W    -10.74230   20.378243   6.8040572
  W    12.916346   36.104932   6.7891210
  W    9.9750000   34.554413   6.7927047
  W    7.0336538   33.003895   6.7933615
  W    4.0923076   31.453376   6.7940182
  W    1.1509615   29.902857   6.7922327
  W    -1.790384   28.352339   6.7919540
  W    -4.731730   26.801820   6.7916754
  W    -7.673076   25.251302   6.7940182
  W    -10.61442   23.700783   6.8009572
  W    7.1615384   36.326434   6.8003005
  W    4.2201923   34.775916   6.8009572
  W    1.2788461   33.225397   6.7975200
  W    -1.662500   31.674879   6.7952816
  W    -4.603846   30.124360   6.7950029
  W    -7.545192   28.573842   6.7913039
  W    -10.48653   27.023323   6.7933615
  W    -13.42788   25.472804   6.8003005
  W    1.4067307   36.547937   6.8040572
  W    -1.534615   34.997418   6.8002665
  W    -4.475961   33.446900   6.7983305
  W    -7.417307   31.896381   6.7942359
  W    -10.35865   30.345863   6.7896629
  W    -13.30000   28.795344   6.7927047
  W    -4.348076   36.769440   6.8037551
  W    -7.289423   35.218921   6.7970761
  W    -10.23076   33.668403   6.7925295
  W    -13.17211   32.117884   6.7879830
  W    -16.11346   30.567365   6.7891210
  W    -10.10288   36.990942   6.7951405
  W    -13.04423   35.440424   6.7905940
  W    -15.98557   33.889905   6.7845836
  W    -15.85769   37.212445   6.7870530
  W    -18.79903   35.661926   6.7809620
  Se   -19.56634   34.185242   1.6965735
  Se   -16.75288   35.957263   1.6962747
  Se   -16.62500   32.634723   1.6930602
  Se   -13.81153   34.406745   1.6927279
  Se   -10.99807   36.178766   1.6915816
  Se   -16.49711   29.312184   1.6898456
  Se   -13.68365   31.084205   1.6895181
  Se   -10.87019   32.856226   1.6891590
  Se   -8.056730   34.628247   1.6887998
  Se   -5.243269   36.400269   1.6786008
  Se   -13.55576   27.761665   1.6883386
  Se   -10.74230   29.533686   1.6884433
  Se   -7.928846   31.305708   1.6885480
  Se   -5.115384   33.077729   1.6886828
  Se   -2.301923   34.849750   1.6806961
  Se   0.5115384   36.621771   1.6715945
  Se   -13.42788   24.439125   1.6782520
  Se   -10.61442   26.211147   1.6894705
  Se   -7.800961   27.983168   1.6903567
  Se   -4.987500   29.755189   1.6904869
  Se   -2.174038   31.527210   1.6906500
  Se   0.6394230   33.299231   1.6835023
  Se   3.4528846   35.071253   1.6791019
  Se   6.2663461   36.843274   1.6782521
  Se   -10.48653   22.888607   1.6791019
  Se   -7.673076   24.660628   1.6903203
  Se   -4.859615   26.432649   1.6922910
  Se   -2.046153   28.204670   1.6924541
  Se   0.7673076   29.976692   1.6926171
  Se   3.5807692   31.748713   1.6903204
  Se   6.3942307   33.520734   1.6894705
  Se   9.2076923   35.292755   1.6883386
  Se   12.021153   37.064776   1.6898456
  Se   -10.35865   19.566067   1.6715945
  Se   -7.545192   21.338088   1.6835022
  Se   -4.731730   23.110109   1.6926171
  Se   -1.918269   24.882131   1.6930842
  Se   0.8951923   26.654152   1.6930842
  Se   3.7086538   28.426173   1.6922911
  Se   6.5221153   30.198194   1.6903568
  Se   9.3355769   31.970216   1.6884433
  Se   12.149038   33.742237   1.6895181
  Se   14.962500   35.514258   1.6930602
  Se   17.775961   37.286279   1.6965735
  Se   -7.417307   18.015548   1.6806961
  Se   -4.603846   19.787570   1.6906500
  Se   -1.790384   21.559591   1.6924541
  Se   1.0230769   23.331612   1.6930842
  Se   3.8365384   25.103633   1.6924541
  Se   6.6500000   26.875655   1.6904869
  Se   9.4634615   28.647676   1.6885480
  Se   12.276923   30.419697   1.6891590
  Se   15.090384   32.191718   1.6927279
  Se   17.903846   33.963739   1.6962747
  Se   20.717307   35.735761   1.6976860
  Se   -7.289423   14.693009   1.6786007
  Se   -4.475961   16.465030   1.6886828
  Se   -1.662500   18.237051   1.6904869
  Se   1.1509615   20.009072   1.6922911
  Se   3.9644230   21.781094   1.6926171
  Se   6.7778846   23.553115   1.6906500
  Se   9.5913461   25.325136   1.6886828
  Se   12.404807   27.097157   1.6887998
  Se   15.218269   28.869178   1.6915815
  Se   18.031730   30.641200   1.6940216
  Se   20.845192   32.413221   1.6968722
  Se   -4.348076   13.142490   1.6887998
  Se   -1.534615   14.914511   1.6885480
  Se   1.2788461   16.686533   1.6903568
  Se   4.0923076   18.458554   1.6903204
  Se   6.9057692   20.230575   1.6835023
  Se   9.7192307   22.002596   1.6806961
  Se   12.532692   23.774617   1.6786007
  Se   15.346153   25.546639   1.6792233
  Se   18.159615   27.318660   1.6816633
  Se   20.973076   29.090681   1.6867197
  Se   23.786538   30.862702   1.6933589
  Se   -4.220192   9.8199508   1.6915815
  Se   -1.406730   11.591972   1.6891590
  Se   1.4067307   13.363993   1.6884433
  Se   4.2201923   15.136014   1.6894705
  Se   7.0336538   16.908035   1.6791019
  Se   9.8471153   18.680056   1.6715945
  Se   12.660576   20.452078   1.6692854
  Se   15.474038   22.224099   1.6689380
  Se   18.287500   23.996120   1.6693051
  Se   21.100961   25.768141   1.6738524
  Se   23.914423   27.540162   1.6823781
  Se   -1.278846   8.2694323   1.6927279
  Se   1.5346153   10.041453   1.6895181
  Se   4.3480769   11.813474   1.6883386
  Se   7.1615384   13.585495   1.6782520
  Se   9.9750000   15.357517   1.6678834
  Se   12.788461   17.129538   1.6599701
  Se   15.601923   18.901559   1.6596226
  Se   18.415384   20.673580   1.6593822
  Se   21.228846   22.445602   1.6613161
  Se   24.042307   24.217623   1.6700961
  Se   26.855769   25.989644   1.6788762
  Se   -1.150961   4.9468925   1.6962747
  Se   1.6625000   6.7189137   1.6930602
  Se   4.4759615   8.4909349   1.6898456
  Se   7.2894230   10.262956   1.6788762
  Se   10.102884   12.034977   1.6687080
  Se   12.916346   13.806998   1.6586552
  Se   15.729807   15.579019   1.6538793
  Se   18.543269   17.351041   1.6538948
  Se   21.356730   19.123062   1.6547648
  Se   24.170192   20.895083   1.6599280
  Se   26.983653   22.667104   1.6687080
  Se   1.7903846   3.3963739   1.6965735
  Se   4.6038461   5.1683951   1.6933589
  Se   7.4173076   6.9404164   1.6823781
  Se   10.230769   8.7124376   1.6700961
  Se   13.044230   10.484458   1.6599280
  Se   15.857692   12.256480   1.6537527
  Se   18.671153   14.028501   1.6484075
  Se   21.484615   15.800522   1.6488502
  Se   24.298076   17.572543   1.6537527
  Se   27.111538   19.344564   1.6586552
  Se   29.925000   21.116586   1.6678834
  Se   1.9182692   0.0738342   1.6976860
  Se   4.7317307   1.8458554   1.6968722
  Se   7.5451923   3.6178766   1.6867197
  Se   10.358653   5.3898978   1.6738524
  Se   13.172115   7.1619190   1.6613161
  Se   15.985576   8.9339402   1.6547648
  Se   18.799038   10.705961   1.6488502
  Se   21.612500   12.477982   1.6429356
  Se   24.425961   14.250003   1.6484075
  Se   27.239423   16.022025   1.6538793
  Se   30.052884   17.794046   1.6599701
  Se   7.6730769   0.2953368   1.6940216
  Se   10.486538   2.0673580   1.6816633
  Se   13.300000   3.8393792   1.6693051
  Se   16.113461   5.6114005   1.6593822
  Se   18.926923   7.3834217   1.6538948
  Se   21.740384   9.1554429   1.6484075
  Se   24.553846   10.927464   1.6488502
  Se   27.367307   12.699485   1.6538948
  Se   30.180769   14.471506   1.6596226
  Se   32.994230   16.243527   1.6692854
  Se   13.427884   0.5168395   1.6792234
  Se   16.241346   2.2888607   1.6689380
  Se   19.054807   4.0608819   1.6596226
  Se   21.868269   5.8329031   1.6538793
  Se   24.681730   7.6049243   1.6537527
  Se   27.495192   9.3769455   1.6547648
  Se   30.308653   11.148966   1.6593822
  Se   33.122115   12.920987   1.6689380
  Se   19.182692   0.7383421   1.6692854
  Se   21.996153   2.5103633   1.6599701
  Se   24.809615   4.2823845   1.6586552
  Se   27.623076   6.0544058   1.6599280
  Se   30.436538   7.8264270   1.6613161
  Se   33.250000   9.5984482   1.6693051
  Se   36.063461   11.370469   1.6792233
  Se   24.937500   0.9598448   1.6678834
  Se   27.750961   2.7318660   1.6687080
  Se   30.564423   4.5038872   1.6700961
  Se   33.377884   6.2759084   1.6738524
  Se   36.191346   8.0479296   1.6816633
  Se   30.692307   1.1813474   1.6788762
  Se   33.505769   2.9533686   1.6823781
  Se   36.319230   4.7253898   1.6867197
  Se   39.132692   6.4974111   1.6940215
  Se   36.447115   1.4028501   1.6933589
  Se   39.260576   3.1748713   1.6968722
  Se   42.201923   1.6243527   1.6976860
  Se   -19.56634   34.185242   -1.665058
  Se   -16.75288   35.957263   -1.665328
  Se   -16.62500   32.634723   -1.668374
  Se   -13.81153   34.406745   -1.668836
  Se   -10.99807   36.178766   -1.670089
  Se   -16.49711   29.312184   -1.671419
  Se   -13.68365   31.084205   -1.671853
  Se   -10.87019   32.856226   -1.672466
  Se   -8.056730   34.628247   -1.673078
  Se   -5.243269   36.400269   -1.679295
  Se   -13.55576   27.761665   -1.673467
  Se   -10.74230   29.533686   -1.673776
  Se   -7.928846   31.305708   -1.674084
  Se   -5.115384   33.077729   -1.674212
  Se   -2.301923   34.849750   -1.678648
  Se   0.5115384   36.621771   -1.683594
  Se   -13.42788   24.439125   -1.679186
  Se   -10.61442   26.211147   -1.673810
  Se   -7.800961   27.983168   -1.673682
  Se   -4.987500   29.755189   -1.673839
  Se   -2.174038   31.527210   -1.673805
  Se   0.6394230   33.299231   -1.677769
  Se   3.4528846   35.071253   -1.679619
  Se   6.2663461   36.843274   -1.679186
  Se   -10.48653   22.888607   -1.679619
  Se   -7.673076   24.660628   -1.674244
  Se   -4.859615   26.432649   -1.673467
  Se   -2.046153   28.204670   -1.673432
  Se   0.7673076   29.976692   -1.673398
  Se   3.5807692   31.748713   -1.674244
  Se   6.3942307   33.520734   -1.673810
  Se   9.2076923   35.292755   -1.673467
  Se   12.021153   37.064776   -1.671419
  Se   -10.35865   19.566067   -1.683594
  Se   -7.545192   21.338088   -1.677769
  Se   -4.731730   23.110109   -1.673398
  Se   -1.918269   24.882131   -1.673301
  Se   0.8951923   26.654152   -1.673301
  Se   3.7086538   28.426173   -1.673467
  Se   6.5221153   30.198194   -1.673682
  Se   9.3355769   31.970216   -1.673776
  Se   12.149038   33.742237   -1.671853
  Se   14.962500   35.514258   -1.668374
  Se   17.775961   37.286279   -1.665058
  Se   -7.417307   18.015548   -1.678648
  Se   -4.603846   19.787570   -1.673805
  Se   -1.790384   21.559591   -1.673432
  Se   1.0230769   23.331612   -1.673301
  Se   3.8365384   25.103633   -1.673432
  Se   6.6500000   26.875655   -1.673839
  Se   9.4634615   28.647676   -1.674084
  Se   12.276923   30.419697   -1.672466
  Se   15.090384   32.191718   -1.668836
  Se   17.903846   33.963739   -1.665328
  Se   20.717307   35.735761   -1.663979
  Se   -7.289423   14.693009   -1.679295
  Se   -4.475961   16.465030   -1.674212
  Se   -1.662500   18.237051   -1.673839
  Se   1.1509615   20.009072   -1.673467
  Se   3.9644230   21.781094   -1.673398
  Se   6.7778846   23.553115   -1.673805
  Se   9.5913461   25.325136   -1.674212
  Se   12.404807   27.097157   -1.673078
  Se   15.218269   28.869178   -1.670089
  Se   18.031730   30.641200   -1.667167
  Se   20.845192   32.413221   -1.664788
  Se   -4.348076   13.142490   -1.673078
  Se   -1.534615   14.914511   -1.674084
  Se   1.2788461   16.686533   -1.673682
  Se   4.0923076   18.458554   -1.674244
  Se   6.9057692   20.230575   -1.677769
  Se   9.7192307   22.002596   -1.678648
  Se   12.532692   23.774617   -1.679295
  Se   15.346153   25.546639   -1.678392
  Se   18.159615   27.318660   -1.675470
  Se   20.973076   29.090681   -1.671797
  Se   23.786538   30.862702   -1.668104
  Se   -4.220192   9.8199508   -1.670089
  Se   -1.406730   11.591972   -1.672466
  Se   1.4067307   13.363993   -1.673776
  Se   4.2201923   15.136014   -1.673810
  Se   7.0336538   16.908035   -1.679619
  Se   9.8471153   18.680056   -1.683594
  Se   12.660576   20.452078   -1.684308
  Se   15.474038   22.224099   -1.684397
  Se   18.287500   23.996120   -1.683773
  Se   21.100961   25.768141   -1.680248
  Se   23.914423   27.540162   -1.675567
  Se   -1.278846   8.2694323   -1.668836
  Se   1.5346153   10.041453   -1.671853
  Se   4.3480769   11.813474   -1.673467
  Se   7.1615384   13.585495   -1.679186
  Se   9.9750000   15.357517   -1.684995
  Se   12.788461   17.129538   -1.689321
  Se   15.601923   18.901559   -1.689410
  Se   18.415384   20.673580   -1.689471
  Se   21.228846   22.445602   -1.688329
  Se   24.042307   24.217623   -1.683404
  Se   26.855769   25.989644   -1.678478
  Se   -1.150961   4.9468925   -1.665328
  Se   1.6625000   6.7189137   -1.668374
  Se   4.4759615   8.4909349   -1.671419
  Se   7.2894230   10.262956   -1.678478
  Se   10.102884   12.034977   -1.684249
  Se   12.916346   13.806998   -1.689977
  Se   15.729807   15.579019   -1.693798
  Se   18.543269   17.351041   -1.693825
  Se   21.356730   19.123062   -1.693168
  Se   24.170192   20.895083   -1.689174
  Se   26.983653   22.667104   -1.684249
  Se   1.7903846   3.3963739   -1.665058
  Se   4.6038461   5.1683951   -1.668104
  Se   7.4173076   6.9404164   -1.675567
  Se   10.230769   8.7124376   -1.683404
  Se   13.044230   10.484458   -1.689174
  Se   15.857692   12.256480   -1.693921
  Se   18.671153   14.028501   -1.698180
  Se   21.484615   15.800522   -1.697865
  Se   24.298076   17.572543   -1.693921
  Se   27.111538   19.344564   -1.689977
  Se   29.925000   21.116586   -1.684995
  Se   1.9182692   0.0738342   -1.663979
  Se   4.7317307   1.8458554   -1.664788
  Se   7.5451923   3.6178766   -1.671797
  Se   10.358653   5.3898978   -1.680248
  Se   13.172115   7.1619190   -1.688330
  Se   15.985576   8.9339402   -1.693168
  Se   18.799038   10.705961   -1.697865
  Se   21.612500   12.477982   -1.702562
  Se   24.425961   14.250003   -1.698180
  Se   27.239423   16.022025   -1.693798
  Se   30.052884   17.794046   -1.689321
  Se   7.6730769   0.2953368   -1.667167
  Se   10.486538   2.0673580   -1.675470
  Se   13.300000   3.8393792   -1.683773
  Se   16.113461   5.6114005   -1.689471
  Se   18.926923   7.3834217   -1.693825
  Se   21.740384   9.1554429   -1.698180
  Se   24.553846   10.927464   -1.697865
  Se   27.367307   12.699485   -1.693825
  Se   30.180769   14.471506   -1.689410
  Se   32.994230   16.243527   -1.684308
  Se   13.427884   0.5168395   -1.678392
  Se   16.241346   2.2888607   -1.684397
  Se   19.054807   4.0608819   -1.689410
  Se   21.868269   5.8329031   -1.693798
  Se   24.681730   7.6049243   -1.693921
  Se   27.495192   9.3769455   -1.693168
  Se   30.308653   11.148966   -1.689471
  Se   33.122115   12.920987   -1.684397
  Se   19.182692   0.7383421   -1.684308
  Se   21.996153   2.5103633   -1.689321
  Se   24.809615   4.2823845   -1.689977
  Se   27.623076   6.0544058   -1.689174
  Se   30.436538   7.8264270   -1.688330
  Se   33.250000   9.5984482   -1.683773
  Se   36.063461   11.370469   -1.678392
  Se   24.937500   0.9598448   -1.684995
  Se   27.750961   2.7318660   -1.684249
  Se   30.564423   4.5038872   -1.683404
  Se   33.377884   6.2759084   -1.680248
  Se   36.191346   8.0479296   -1.675470
  Se   30.692307   1.1813474   -1.678478
  Se   33.505769   2.9533686   -1.675567
  Se   36.319230   4.7253898   -1.671797
  Se   39.132692   6.4974111   -1.667167
  Se   36.447115   1.4028501   -1.668104
  Se   39.260576   3.1748713   -1.664788
  Se   42.201923   1.6243527   -1.663979
  Se   41.306730   0.0738342   8.4608112
  Se   38.493269   1.8458554   8.4615564
  Se   35.551923   0.2953368   8.4645940
  Se   38.621153   5.1683951   8.4646412
  Se   35.679807   3.6178766   8.4703593
  Se   32.738461   2.0673580   8.4752515
  Se   29.797115   0.5168395   8.4784021
  Se   35.807692   6.9404164   8.4741300
  Se   32.866346   5.3898978   8.4813596
  Se   29.925000   3.8393792   8.4859089
  Se   26.983653   2.2888607   8.4871595
  Se   24.042307   0.7383421   8.4878156
  Se   35.935576   10.262956   8.4774096
  Se   32.994230   8.7124376   8.4847794
  Se   30.052884   7.1619190   8.4921493
  Se   27.111538   5.6114005   8.4943904
  Se   24.170192   4.0608819   8.4950907
  Se   21.228846   2.5103633   8.4957468
  Se   18.287500   0.9598448   8.4886708
  Se   33.122115   12.034977   8.4868709
  Se   30.180769   10.484458   8.4942408
  Se   27.239423   8.9339402   8.4997487
  Se   24.298076   7.3834217   8.5013033
  Se   21.356730   5.8329031   8.5020558
  Se   18.415384   4.2823845   8.4962510
  Se   15.474038   2.7318660   8.4868709
  Se   12.532692   1.1813474   8.4774096
  Se   33.250000   15.357517   8.4886708
  Se   30.308653   13.806998   8.4962510
  Se   27.367307   12.256480   8.5016569
  Se   24.425961   10.705961   8.5070627
  Se   21.484615   9.1554429   8.5082163
  Se   18.543269   7.6049243   8.5016569
  Se   15.601923   6.0544058   8.4942408
  Se   12.660576   4.5038872   8.4847794
  Se   9.7192307   2.9533686   8.4741300
  Se   6.7778846   1.4028501   8.4646412
  Se   30.436538   17.129538   8.4957468
  Se   27.495192   15.579019   8.5020558
  Se   24.553846   14.028501   8.5082163
  Se   21.612500   12.477982   8.5143768
  Se   18.671153   10.927464   8.5070627
  Se   15.729807   9.3769455   8.4997487
  Se   12.788461   7.8264270   8.4921493