&CONTROL
  prefix = 'bwse2_ang_5_08_n_atoms_762'
  outdir = '../out/'
  verbosity = 'high'
  pseudo_dir = '../pseudo/'
  tprnfor = true
  calculation = 'relax'
/
&SYSTEM
  assume_isolated = '2D'
  ibrav = 4
  nat = 762
  ntyp = 2
  occupations = 'fixed'
  ecutwfc = 30
  ecutrho = 120
  input_dft = 'vdw-df-cx'
  a = 37.470847001368945
  c = 32
/
&ELECTRONS
/
&IONS
/
ATOMIC_SPECIES
  W    183.84   'W_pbe_v1.2.uspp.F.UPF'
  Se   78.960   'Se_pbe_v1.uspp.F.UPF'
ATOMIC_POSITIONS angstrom
  W    -15.78496   30.917601   0.0197129
  W    -15.63744   27.595875   0.0117645
  W    -12.83450   29.384497   0.0151984
  W    -10.03156   31.173118   0.0086487
  W    -12.68697   26.062771   0.0083476
  W    -9.884042   27.851392   0.0120165
  W    -7.081104   29.640014   0.0061775
  W    -4.278167   31.428635   -0.002948
  W    -12.53945   22.741045   0.0027522
  W    -9.736519   24.529667   0.0064099
  W    -6.933581   26.318288   0.0101833
  W    -4.130644   28.106910   0.0054483
  W    -1.327707   29.895531   0.0002278
  W    1.4752301   31.684153   -0.003340
  W    -9.588996   21.207941   0.0008033
  W    -6.786058   22.996562   0.0045767
  W    -3.983121   24.785184   0.0084523
  W    -1.180184   26.573806   0.0078024
  W    1.6227532   28.362427   0.0039173
  W    4.4256905   30.151049   0.0008034
  W    7.2286279   31.939670   0.0027522
  W    -9.441473   17.886215   -0.003340
  W    -6.638535   19.674837   0.0039172
  W    -3.835598   21.463458   0.0081273
  W    -1.032661   23.252080   0.0100330
  W    1.7702762   25.040701   0.0081274
  W    4.5732136   26.829323   0.0045767
  W    7.3761509   28.617944   0.0064099
  W    10.179088   30.406566   0.0083476
  W    12.982025   32.195188   0.0117645
  W    -6.491012   16.353111   0.0002277
  W    -3.688075   18.141732   0.0078024
  W    -0.885138   19.930354   0.0100330
  W    1.9177992   21.718976   0.0100330
  W    4.7207366   23.507597   0.0084523
  W    7.5236740   25.296219   0.0101833
  W    10.326611   27.084840   0.0120165
  W    13.129548   28.873462   0.0151984
  W    15.932486   30.662083   0.0197129
  W    -6.343489   13.031385   -0.002948
  W    -3.540552   14.820007   0.0054482
  W    -0.737615   16.608628   0.0084523
  W    2.0653222   18.397250   0.0081274
  W    4.8682596   20.185871   0.0078024
  W    7.6711970   21.974493   0.0054482
  W    10.474134   23.763114   0.0061775
  W    13.277071   25.551736   0.0086487
  W    16.080009   27.340358   0.0127215
  W    18.882946   29.128979   0.0162701
  W    -3.393029   11.498281   0.0061774
  W    -0.590092   13.286903   0.0101833
  W    2.2128452   15.075524   0.0045767
  W    5.0157826   16.864146   0.0039173
  W    7.8187200   18.652767   0.0002278
  W    10.621657   20.441389   -0.002948
  W    13.424594   22.230010   -0.000801
  W    16.227532   24.018632   0.0041223
  W    19.030469   25.807253   0.0083127
  W    -3.245506   8.1765556   0.0086486
  W    -0.442569   9.9651772   0.0120165
  W    2.3603683   11.753798   0.0064099
  W    5.1633056   13.542420   0.0008033
  W    7.9662430   15.331041   -0.003340
  W    10.769180   17.119663   -0.007789
  W    13.572117   18.908285   -0.010431
  W    16.375055   20.696906   -0.005626
  W    19.177992   22.485528   -0.000821
  W    21.980929   24.274149   0.0047178
  W    -0.295046   6.6434515   0.0151984
  W    2.5078913   8.4320730   0.0083476
  W    5.3108287   10.220694   0.0027522
  W    8.1137660   12.009316   -0.006559
  W    10.916703   13.797937   -0.012597
  W    13.719640   15.586559   -0.016370
  W    16.522578   17.375180   -0.016470
  W    19.325515   19.163802   -0.011665
  W    22.128452   20.952423   -0.004148
  W    -0.147523   3.3217257   0.0197129
  W    2.6554143   5.1103473   0.0117645
  W    5.4583517   6.8989688   0.0047178
  W    8.2612891   8.6875904   -0.004148
  W    11.064226   10.476211   -0.015299
  W    13.867163   12.264833   -0.021505
  W    16.670101   14.053455   -0.021954
  W    19.473038   15.842076   -0.022403
  W    22.275975   17.630698   -0.015299
  W    25.078913   19.419319   -0.006559
  W    0.0000000   0.0000000   0.0242275
  W    2.8029373   1.7886215   0.0162701
  W    5.6058747   3.5772431   0.0083127
  W    8.4088121   5.3658646   -0.000821
  W    11.211749   7.1544862   -0.011665
  W    14.014686   8.9431077   -0.022403
  W    16.817624   10.731729   -0.024471
  W    19.620561   12.520350   -0.024471
  W    22.423498   14.308972   -0.021505
  W    25.226436   16.097594   -0.012597
  W    5.7533977   0.2555173   0.0127215
  W    8.5563351   2.0441389   0.0041223
  W    11.359272   3.8327604   -0.005626
  W    14.162209   5.6213820   -0.016470
  W    16.965147   7.4100035   -0.021954
  W    19.768084   9.1986251   -0.024471
  W    22.571022   10.987246   -0.021954
  W    25.373959   12.775868   -0.016370
  W    28.176896   14.564489   -0.007789
  W    11.506795   0.5110347   -0.000801
  W    14.309732   2.2996562   -0.010431
  W    17.112670   4.0882778   -0.016370
  W    19.915607   5.8768994   -0.021505
  W    22.718545   7.6655209   -0.022403
  W    25.521482   9.4541425   -0.016470
  W    28.324419   11.242764   -0.010431
  W    17.260193   0.7665520   -0.007789
  W    20.063130   2.5551736   -0.012597
  W    22.866068   4.3437952   -0.015299
  W    25.669005   6.1324167   -0.011665
  W    28.471942   7.9210383   -0.005626
  W    31.274880   9.7096598   -0.000801
  W    23.013591   1.0220694   -0.006559
  W    25.816528   2.8106910   -0.004148
  W    28.619465   4.5993125   -0.000821
  W    31.422403   6.3879341   0.0041223
  W    28.766988   1.2775868   0.0047178
  W    31.569926   3.0662083   0.0083127
  W    34.372863   4.8548299   0.0127214
  W    34.520386   1.5331041   0.0162701
  W    34.667909   1.7886215   6.7844029
  W    31.717449   0.2555173   6.7877043
  W    31.864972   3.5772431   6.7914654
  W    28.914511   2.0441389   6.7956505
  W    25.964051   0.5110347   6.8008629
  W    32.012495   6.8989688   6.7948648
  W    29.062034   5.3658646   6.8003109
  W    26.111574   3.8327604   6.8053078
  W    23.161114   2.2996562   6.8103046
  W    20.210653   0.7665520   6.8076803
  W    29.209557   8.6875904   6.8040261
  W    26.259097   7.1544862   6.8119422
  W    23.308637   5.6213820   6.8169391
  W    20.358176   4.0882778   6.8168280
  W    17.407716   2.5551736   6.8130228
  W    14.457255   1.0220694   6.8067659
  W    29.357080   12.009316   6.8067660
  W    26.406620   10.476211   6.8159915
  W    23.456160   8.9431077   6.8234776
  W    20.505699   7.4100035   6.8229861
  W    17.555239   5.8768994   6.8224947
  W    14.604778   4.3437952   6.8159915
  W    11.654318   2.8106910   6.8040261
  W    8.7038581   1.2775868   6.7948648
  W    26.554143   13.797937   6.8130228
  W    23.603683   12.264833   6.8224947
  W    20.653222   10.731729   6.8257698
  W    17.702762   9.1986251   6.8257698
  W    14.752301   7.6655209   6.8234776
  W    11.801841   6.1324167   6.8119422
  W    8.8513811   4.5993125   6.8003109
  W    5.9009207   3.0662083   6.7914654
  W    2.9504603   1.5331041   6.7844029
  W    0.0000000   0.0000000   6.7773404
  W    26.701666   17.119663   6.8076803
  W    23.751206   15.586559   6.8168280
  W    20.800745   14.053455   6.8229861
  W    17.850285   12.520350   6.8257698
  W    14.899824   10.987246   6.8229861
  W    11.949364   9.4541425   6.8169391
  W    8.9989042   7.9210383   6.8053078
  W    6.0484438   6.3879341   6.7956505
  W    3.0979834   4.8548299   6.7877044
  W    0.1475230   3.3217257   6.7814844
  W    23.898729   18.908285   6.8103046
  W    20.948268   17.375180   6.8169391
  W    17.997808   15.842076   6.8234776
  W    15.047348   14.308972   6.8224947
  W    12.096887   12.775868   6.8168280
  W    9.1464272   11.242764   6.8103046
  W    6.1959668   9.7096598   6.8008629
  W    3.2455064   8.1765556   6.7917299
  W    0.2950460   6.6434515   6.7856283
  W    -2.655414   5.1103473   6.7885151
  W    24.046252   22.230010   6.8008629
  W    21.095791   20.696906   6.8053078
  W    18.145331   19.163802   6.8119422
  W    15.194871   17.630698   6.8159915
  W    12.244410   16.097594   6.8130228
  W    9.2939502   14.564489   6.8076803
  W    6.3434898   13.031385   6.8031567
  W    3.3930294   11.498281   6.7943699
  W    0.4425690   9.9651772   6.7886892
  W    -2.507891   8.4320730   6.7918275
  W    21.243314   24.018632   6.7956505
  W    18.292854   22.485528   6.8003109
  W    15.342394   20.952423   6.8040261
  W    12.391933   19.419319   6.8067659
  W    9.4414732   17.886215   6.8032624
  W    6.4910128   16.353111   6.8000535
  W    3.5405524   14.820007   6.7951847
  W    0.5900920   13.286903   6.7905526
  W    -2.360368   11.753798   6.7939593
  W    -5.310828   10.220694   6.7970694
  W    21.390837   27.340358   6.7877043
  W    18.440377   25.807253   6.7914654
  W    15.489917   24.274149   6.7948648
  W    12.539456   22.741045   6.7970694
  W    9.5889962   21.207941   6.7992293
  W    6.6385358   19.674837   6.7964365
  W    3.6880754   18.141732   6.7929052
  W    0.7376150   16.608628   6.7923126
  W    -2.212845   15.075524   6.7958227
  W    -5.163305   13.542420   6.7992294
  W    18.587900   29.128979   6.7844029
  W    15.637440   27.595875   6.7885151
  W    12.686979   26.062771   6.7918274
  W    9.7365193   24.529667   6.7939593
  W    6.7860589   22.996562   6.7958227
  W    3.8355985   21.463458   6.7926089
  W    0.8851381   19.930354   6.7908805
  W    -2.065322   18.397250   6.7926089
  W    -5.015782   16.864146   6.7964365
  W    -7.966243   15.331041   6.8032624
  W    15.784963   30.917601   6.7814844
  W    12.834502   29.384497   6.7856283
  W    9.8840423   27.851392   6.7886892
  W    6.9335819   26.318288   6.7905526
  W    3.9831215   24.785184   6.7923126
  W    1.0326611   23.252080   6.7908805
  W    -1.917799   21.718976   6.7908805
  W    -4.868259   20.185871   6.7929052
  W    -7.818720   18.652767   6.8000536
  W    10.031565   31.173118   6.7917299
  W    7.0811049   29.640014   6.7943699
  W    4.1306445   28.106910   6.7951847
  W    1.1801841   26.573806   6.7929052
  W    -1.770276   25.040701   6.7926089
  W    -4.720736   23.507597   6.7923127
  W    -7.671197   21.974493   6.7951847
  W    -10.62165   20.441389   6.8031567
  W    4.2781675   31.428635   6.8031567
  W    1.3277071   29.895531   6.8000535
  W    -1.622753   28.362427   6.7964365
  W    -4.573213   26.829323   6.7958226
  W    -7.523674   25.296219   6.7905526
  W    -10.47413   23.763114   6.7943699
  W    -1.475230   31.684153   6.8032624
  W    -4.425690   30.151049   6.7992293
  W    -7.376150   28.617944   6.7939593
  W    -10.32661   27.084840   6.7886892
  W    -13.27707   25.551736   6.7917299
  W    -7.228627   31.939670   6.7970694
  W    -10.17908   30.406566   6.7918274
  W    -13.12954   28.873462   6.7856283
  W    -12.98202   32.195188   6.7885151
  W    -15.93248   30.662083   6.7814844
  Se   -16.67010   29.214152   1.6958824
  Se   -13.86716   31.002773   1.6955643
  Se   -13.71964   27.681047   1.6918412
  Se   -10.91670   29.469669   1.6914659
  Se   -8.113766   31.258291   1.6879335
  Se   -13.57211   24.359322   1.6866678
  Se   -10.76918   26.147943   1.6877479
  Se   -7.966243   27.936565   1.6875920
  Se   -5.163305   29.725186   1.6862116
  Se   -2.360368   31.513808   1.6756545
  Se   -10.62165   22.826217   1.6866210
  Se   -7.818720   24.614839   1.6896864
  Se   -5.015782   26.403461   1.6898040
  Se   -2.212845   28.192082   1.6893659
  Se   0.5900920   29.980704   1.6788088
  Se   3.3930294   31.769325   1.6747079
  Se   -10.47413   19.504492   1.6747079
  Se   -7.671197   21.293113   1.6876864
  Se   -4.868259   23.081735   1.6918935
  Se   -2.065322   24.870356   1.6920668
  Se   0.7376150   26.658978   1.6922400
  Se   3.5405524   28.447600   1.6876864
  Se   6.3434898   30.236221   1.6866211
  Se   9.1464272   32.024843   1.6866678
  Se   -7.523674   17.971388   1.6788087
  Se   -4.720736   19.760009   1.6922400
  Se   -1.917799   21.548631   1.6930842
  Se   0.8851381   23.337252   1.6930842
  Se   3.6880754   25.125874   1.6918936
  Se   6.4910128   26.914495   1.6896864
  Se   9.2939502   28.703117   1.6877479
  Se   12.096887   30.491738   1.6918412
  Se   14.899824   32.280360   1.6958824
  Se   -7.376150   14.649662   1.6756545
  Se   -4.573213   16.438283   1.6893658
  Se   -1.770276   18.226905   1.6920668
  Se   1.0326611   20.015526   1.6930842
  Se   3.8355985   21.804148   1.6920668
  Se   6.6385358   23.592770   1.6898040
  Se   9.4414732   25.381391   1.6875920
  Se   12.244410   27.170013   1.6914659
  Se   15.047348   28.958634   1.6955643
  Se   17.850285   30.747256   1.6976860
  Se   -4.425690   13.116558   1.6862115
  Se   -1.622753   14.905179   1.6898040
  Se   1.1801841   16.693801   1.6918936
  Se   3.9831215   18.482422   1.6922400
  Se   6.7860589   20.271044   1.6893659
  Se   9.5889962   22.059665   1.6862115
  Se   12.391933   23.848287   1.6879334
  Se   15.194871   25.636908   1.6908358
  Se   17.997808   27.425530   1.6962005
  Se   -4.278167   9.7948323   1.6879334
  Se   -1.475230   11.583453   1.6875920
  Se   1.3277071   13.372075   1.6896864
  Se   4.1306445   15.160697   1.6876864
  Se   6.9335819   16.949318   1.6788088
  Se   9.7365193   18.737940   1.6756545
  Se   12.539456   20.526561   1.6747741
  Se   15.342394   22.315183   1.6765506
  Se   18.145331   24.103804   1.6816893
  Se   20.948268   25.892426   1.6915918
  Se   -1.327707   8.2617281   1.6914659
  Se   1.4752301   10.050349   1.6877479
  Se   4.2781675   11.838971   1.6866211
  Se   7.0811049   13.627592   1.6747079
  Se   9.8840423   15.416214   1.6650974
  Se   12.686979   17.204835   1.6639891
  Se   15.489917   18.993457   1.6636630
  Se   18.292854   20.782079   1.6668628
  Se   21.095791   22.570700   1.6767653
  Se   -1.180184   4.9400023   1.6955643
  Se   1.6227532   6.7286239   1.6918412
  Se   4.4256905   8.5172455   1.6866678
  Se   7.2286279   10.305867   1.6745596
  Se   10.031565   12.094488   1.6628593
  Se   12.834502   13.883110   1.6555163
  Se   15.637440   15.671731   1.6555774
  Se   18.440377   17.460353   1.6565504
  Se   21.243314   19.248974   1.6643859
  Se   24.046252   21.037596   1.6745596
  Se   1.7702762   3.4068982   1.6958824
  Se   4.5732136   5.1955197   1.6915918
  Se   7.3761509   6.9841413   1.6767653
  Se   10.179088   8.7727628   1.6643859
  Se   12.982025   10.561384   1.6554256
  Se   15.784963   12.350005   1.6492260
  Se   18.587900   14.138627   1.6497430
  Se   21.390837   15.927249   1.6554256
  Se   24.193775   17.715870   1.6628593
  Se   1.9177992   0.0851724   1.6976860
  Se   4.7207366   1.8737940   1.6962005
  Se   7.5236740   3.6624155   1.6816892
  Se   10.326611   5.4510371   1.6668627
  Se   13.129548   7.2396586   1.6565504
  Se   15.932486   9.0282802   1.6497430
  Se   18.735423   10.816901   1.6429356
  Se   21.538360   12.605523   1.6492260
  Se   24.341298   14.394144   1.6555163
  Se   27.144235   16.182766   1.6650974
  Se   7.6711970   0.3406898   1.6908358
  Se   10.474134   2.1293113   1.6765506
  Se   13.277071   3.9179329   1.6636630
  Se   16.080009   5.7065544   1.6555774
  Se   18.882946   7.4951760   1.6492260
  Se   21.685883   9.2837976   1.6497430
  Se   24.488821   11.072419   1.6555774
  Se   27.291758   12.861040   1.6639891
  Se   13.424594   0.5962071   1.6747741
  Se   16.227532   2.3848287   1.6639891
  Se   19.030469   4.1734503   1.6555163
  Se   21.833406   5.9620718   1.6554256
  Se   24.636344   7.7506934   1.6565504
  Se   27.439281   9.5393149   1.6636630
  Se   30.242219   11.327936   1.6747741
  Se   19.177992   0.8517245   1.6650974
  Se   21.980929   2.6403461   1.6628593
  Se   24.783867   4.4289676   1.6643859
  Se   27.586804   6.2175892   1.6668628
  Se   30.389742   8.0062107   1.6765506
  Se   24.931390   1.1072419   1.6745596
  Se   27.734327   2.8958634   1.6767653
  Se   30.537265   4.6844850   1.6816892
  Se   33.340202   6.4731065   1.6908358
  Se   30.684788   1.3627592   1.6915918
  Se   33.487725   3.1513808   1.6962005
  Se   36.438185   1.6182766   1.6976860
  Se   -16.67010   29.214152   -1.665711
  Se   -13.86716   31.002773   -1.665997
  Se   -13.71964   27.681047   -1.669525
  Se   -10.91670   29.469669   -1.670137
  Se   -8.113766   31.258291   -1.672974
  Se   -13.57211   24.359322   -1.673921
  Se   -10.76918   26.147943   -1.673633
  Se   -7.966243   27.936565   -1.674156
  Se   -5.163305   29.725186   -1.675320
  Se   -2.360368   31.513808   -1.681052
  Se   -10.62165   22.826217   -1.674891
  Se   -7.818720   24.614839   -1.673692
  Se   -5.015782   26.403461   -1.673981
  Se   -2.212845   28.192082   -1.674348
  Se   0.5900920   29.980704   -1.680080
  Se   3.3930294   31.769325   -1.681573
  Se   -10.47413   19.504492   -1.681573
  Se   -7.671197   21.293113   -1.675347
  Se   -4.868259   23.081735   -1.673549
  Se   -2.065322   24.870356   -1.673512
  Se   0.7376150   26.658978   -1.673476
  Se   3.5405524   28.447600   -1.675347
  Se   6.3434898   30.236221   -1.674891
  Se   9.1464272   32.024843   -1.673921
  Se   -7.523674   17.971388   -1.680080
  Se   -4.720736   19.760009   -1.673476
  Se   -1.917799   21.548631   -1.673301
  Se   0.8851381   23.337252   -1.673301
  Se   3.6880754   25.125874   -1.673549
  Se   6.4910128   26.914495   -1.673692
  Se   9.2939502   28.703117   -1.673633
  Se   12.096887   30.491738   -1.669525
  Se   14.899824   32.280360   -1.665711
  Se   -7.376150   14.649662   -1.681052
  Se   -4.573213   16.438283   -1.674348
  Se   -1.770276   18.226905   -1.673512
  Se   1.0326611   20.015526   -1.673301
  Se   3.8355985   21.804148   -1.673512
  Se   6.6385358   23.592770   -1.673981
  Se   9.4414732   25.381391   -1.674156
  Se   12.244410   27.170013   -1.670137
  Se   15.047348   28.958634   -1.665997
  Se   17.850285   30.747256   -1.663979
  Se   -4.425690   13.116558   -1.675320
  Se   -1.622753   14.905179   -1.673981
  Se   1.1801841   16.693801   -1.673549
  Se   3.9831215   18.482422   -1.673476
  Se   6.7860589   20.271044   -1.674348
  Se   9.5889962   22.059665   -1.675320
  Se   12.391933   23.848287   -1.672974
  Se   15.194871   25.636908   -1.669550
  Se   17.997808   27.425530   -1.665425
  Se   -4.278167   9.7948323   -1.672974
  Se   -1.475230   11.583453   -1.674156
  Se   1.3277071   13.372075   -1.673692
  Se   4.1306445   15.160697   -1.675347
  Se   6.9335819   16.949318   -1.680080
  Se   9.7365193   18.737940   -1.681052
  Se   12.539456   20.526561   -1.681289
  Se   15.342394   22.315183   -1.679137
  Se   18.145331   24.103804   -1.675072
  Se   20.948268   25.892426   -1.669624
  Se   -1.327707   8.2617281   -1.670137
  Se   1.4752301   10.050349   -1.673633
  Se   4.2781675   11.838971   -1.674891
  Se   7.0811049   13.627592   -1.681573
  Se   9.8840423   15.416214   -1.686784
  Se   12.686979   17.204835   -1.687092
  Se   15.489917   18.993457   -1.687155
  Se   18.292854   20.782079   -1.684817
  Se   21.095791   22.570700   -1.679369
  Se   -1.180184   4.9400023   -1.665997
  Se   1.6227532   6.7286239   -1.669525
  Se   4.4256905   8.5172455   -1.673921
  Se   7.2286279   10.305867   -1.680944
  Se   10.031565   12.094488   -1.687584
  Se   12.834502   13.883110   -1.692486
  Se   15.637440   15.671731   -1.692483
  Se   18.440377   17.460353   -1.691751
  Se   21.243314   19.248974   -1.686652
  Se   24.046252   21.037596   -1.680944
  Se   1.7702762   3.4068982   -1.665711
  Se   4.5732136   5.1955197   -1.669624
  Se   7.3761509   6.9841413   -1.679369
  Se   10.179088   8.7727628   -1.686652
  Se   12.982025   10.561384   -1.692585
  Se   15.784963   12.350005   -1.697524
  Se   18.587900   14.138627   -1.697156
  Se   21.390837   15.927249   -1.692585
  Se   24.193775   17.715870   -1.687584
  Se   1.9177992   0.0851724   -1.663979
  Se   4.7207366   1.8737940   -1.665425
  Se   7.5236740   3.6624155   -1.675072
  Se   10.326611   5.4510371   -1.684817
  Se   13.129548   7.2396586   -1.691751
  Se   15.932486   9.0282802   -1.697156
  Se   18.735423   10.816901   -1.702562
  Se   21.538360   12.605523   -1.697524
  Se   24.341298   14.394144   -1.692486
  Se   27.144235   16.182766   -1.686784
  Se   7.6711970   0.3406898   -1.669550
  Se   10.474134   2.1293113   -1.679137
  Se   13.277071   3.9179329   -1.687155
  Se   16.080009   5.7065544   -1.692483
  Se   18.882946   7.4951760   -1.697524
  Se   21.685883   9.2837976   -1.697156
  Se   24.488821   11.072419   -1.692483
  Se   27.291758   12.861040   -1.687092
  Se   13.424594   0.5962071   -1.681289
  Se   16.227532   2.3848287   -1.687092
  Se   19.030469   4.1734503   -1.692486
  Se   21.833406   5.9620718   -1.692585
  Se   24.636344   7.7506934   -1.691751
  Se   27.439281   9.5393149   -1.687155
  Se   30.242219   11.327936   -1.681289
  Se   19.177992   0.8517245   -1.686784
  Se   21.980929   2.6403461   -1.687584
  Se   24.783867   4.4289676   -1.686652
  Se   27.586804   6.2175892   -1.684817
  Se   30.389742   8.0062107   -1.679137
  Se   24.931390   1.1072419   -1.680944
  Se   27.734327   2.8958634   -1.679369
  Se   30.537265   4.6844850   -1.675072
  Se   33.340202   6.4731065   -1.669550
  Se   30.684788   1.3627592   -1.669624
  Se   33.487725   3.1513808   -1.665425
  Se   36.438185   1.6182766   -1.663979
  Se   35.553047   0.0851724   8.4608112
  Se   32.750110   1.8737940   8.4621482
  Se   29.799649   0.3406898   8.4675391
  Se   32.897633   5.1955197   8.4662601
  Se   29.947172   3.6624155   8.4746580
  Se   26.996712   2.1293113   8.4798501
  Se   24.046252   0.5962071   8.4825053
  Se   30.094696   6.9841413   8.4789359
  Se   27.144235   5.4510371   8.4873337
  Se   24.193775   3.9179329   8.4908636
  Se   21.243314   2.3848287   8.4916804
  Se   18.292854   0.8517245   8.4917673
  Se   30.242219   10.305867   8.4816529
  Se   27.291758   8.7727628   8.4901998
  Se   24.341298   7.2396586   8.4975302
  Se   21.390837   5.7065544   8.4993049
  Se   18.440377   4.1734503   8.5002243
  Se   15.489917   2.6403461   8.4925462
  Se   12.539456   1.1072419   8.4816529
  Se   27.439281   12.094488   8.4925462
  Se   24.488821   10.561384   8.4996813
  Se   21.538360   9.0282802   8.5059535
  Se   18.587900   7.4951760   8.5073005
  Se   15.637440   5.9620718   8.4996813
  Se   12.686979   4.4289676   8.4901998
  Se   9.7365193   2.8958634   8.4789358
  Se   6.7860589   1.3627592   8.4662601
  Se   27.586804   15.416214   8.4917673
  Se   24.636344   13.883110   8.5002243
  Se   21.685883   12.350005   8.5073005
  Se   18.735423   10.816901   8.5143768
  Se   15.784963   9.2837976   8.5059535
  Se   12.834502   7.7506934   8.4975302
  Se   9.8840423   6.2175892   8.4873337
  Se   6.9335819   4.6844850   8.4746580
  Se   3.9831215   3.1513808   8.4621482
  Se   1.0326611   1.6182766   8.4608112
  Se   24.783867   17.204835   8.4916804
  Se   21.833406   15.671731   8.4993049
  Se   18.882946   14.138627   8.5059535
  Se   15.932486   12.605523   8.5073005
  Se   12.982025   11.072419   8.4993049
  Se   10.031565   9.5393149   8.4908636
  Se   7.0811049   8.0062107   8.4798501
  Se   4.1306445   6.4731065   8.4675391
  Se   1.1801841   4.9400023   8.4626877
  Se   -1.770276   3.4068982   8.4624180
  Se   24.931390   20.526561   8.4825054
  Se   21.980929   18.993457   8.4908636
  Se   19.030469   17.460353   8.4975302
  Se   16.080009   15.927249   8.4996813
  Se   13.129548   14.394144   8.5002243
  Se   10.179088   12.861040   8.4916804
  Se   7.2286279   11.327936   8.4825053
  Se   4.2781675   9.7948323   8.4712451
  Se   1.3277071   8.2617281   8.4672045
  Se   -1.622753   6.7286239   8.4659663
  Se   22.128452   22.315183   8.4798501
  Se   19.177992   20.782079   8.4873337
  Se   16.227532   19.248974   8.4901998
  Se   13.277071   17.715870   8.4925462
  Se   10.326611   16.182766   8.4917673
  Se   7.3761509   14.649662   8.4828031
  Se   4.4256905   13.116558   8.4738389
  Se   1.4752301   11.583453   8.4716581
  Se   -1.475230   10.050349   8.4703912
  Se   -4.425690   8.5172455   8.4705380
  Se   22.275975   25.636908   8.4675391
  Se   19.325515   24.103804   8.4746580
  Se   16.375055   22.570700   8.4789358
  Se   13.424594   21.037596   8.4816529
  Se   10.474134   19.504492   8.4831010
  Se   7.5236740   17.971388   8.4809240
  Se   4.5732136   16.438283   8.4719598
  Se   1.6227532   14.905179   8.4714372
  Se   -1.327707   13.372075   8.4705563
  Se   -4.278167   11.838971   8.4720854
  Se   19.473038   27.425530   8.4621482
  Se   16.522578   25.892426   8.4662601
  Se   13.572117   24.359322   8.4705380
  Se   10.621657   22.826217   8.4720854
  Se   7.6711970   21.293113   8.4730258
  Se   4.7207366   19.760009   8.4702576
  Se   1.7702762   18.226905   8.4703431
  Se   -1.180184   16.693801   8.4704287
  Se   -4.130644   15.160697   8.4730258
  Se   -7.081104   13.627592   8.4831010
  Se   19.620561   30.747256   8.4608112
  Se   16.670101   29.214152   8.4624180
  Se   13.719640   27.681047   8.4659663
  Se   10.769180   26.147943   8.4703912
  Se   7.8187200   24.614839   8.4705563
  Se   4.8682596   23.081735   8.4704287
  Se   1.9177992   21.548631   8.4698491
  Se   -1.032661   20.015526   8.4698491
  Se   -3.983121   18.482422   8.4702576
  Se   -6.933581   16.949318   8.4809240
  Se   13.867163   31.002773   8.4626877
  Se   10.916703   29.469669   8.4672045
  Se   7.9662430   27.936565   8.4716581
  Se   5.0157826   26.403461   8.4714372
  Se   2.0653222   24.870356   8.4703431
  Se   -0.885138   23.337252   8.4698491
  Se   -3.835598   21.804148   8.4703432
  Se   -6.786058   20.271044   8.4719598
  Se   -9.736519   18.737940   8.4828031
  Se   8.1137660   31.258291   8.4712451
  Se   5.1633056   29.725186   8.4738389
  Se   2.2128452   28.192082   8.4719598
  Se   -0.737615   26.658978   8.4702576
  Se   -3.688075   25.125874   8.4704287
  Se   -6.638535   23.592770   8.4714372
  Se   -9.588996   22.059665   8.4738390
  Se   2.3603683   31.513808   8.4828031
  Se   -0.590092   29.980704   8.4809240
  Se   -3.540552   28.447600   8.4730258
  Se   -6.491012   26.914495   8.4705563
  Se   -9.441473   25.381391   8.4716581
  Se   -12.39193   23.848287   8.4712451
  Se   -3.393029   31.769325   8.4831010
  Se   -6.343489   30.236221   8.4720854
  Se   -9.293950   28.703117   8.4703912
  Se   -12.24441   27.170013   8.4672045
  Se   -9.146427   32.024843   8.4705380
  Se   -12.09688   30.491738   8.4659663
  Se   -15.04734   28.958634   8.4626877
  Se   -14.89982   32.280360   8.4624180
  Se   35.553047   0.0851724   5.1081932
  Se   32.750110   1.8737940   5.1093147
  Se   29.799649   0.3406898   5.1131644
  Se   32.897633   5.1955197   5.1127113
  Se   29.947172   3.6624155   5.1188933
  Se   26.996712   2.1293113   5.1226827
  Se   24.046252   0.5962071   5.1243310
  Se   30.094696   6.9841413   5.1225033
  Se   27.144235   5.4510371   5.1286853
  Se   24.193775   3.9179329   5.1309375
  Se   21.243314   2.3848287   5.1306584
  Se   18.292854   0.8517245   5.1298858
  Se   30.242219   10.305867   5.1239078
  Se   27.291758   8.7727628   5.1303133
  Se   24.341298   7.2396586   5.1363334
  Se   21.390837   5.7065544   5.1370410
  Se   18.440377   4.1734503   5.1367942
  Se   15.489917   2.6403461   5.1311553
  Se   12.539456   1.1072419   5.1239078
  Se   27.439281   12.094488   5.1311553
  Se   24.488821   10.561384   5.1371088
  Se   21.538360   9.0282802   5.1427674
  Se   18.587900   7.4951760   5.1429978
  Se   15.637440   5.9620718   5.1371088
  Se   12.686979   4.4289676   5.1303134
  Se   9.7365193   2.8958634   5.1225033
  Se   6.7860589   1.3627592   5.1127113
  Se   27.586804   15.416214   5.1298858
  Se   24.636344   13.883110   5.1367942
  Se   21.685883   12.350005   5.1429978
  Se   18.735423   10.816901   5.1492014
  Se   15.784963   9.2837976   5.1427674
  Se   12.834502   7.7506934   5.1363335
  Se   9.8840423   6.2175892   5.1286853
  Se   6.9335819   4.6844850   5.1188933
  Se   3.9831215   3.1513808   5.1093147
  Se   1.0326611   1.6182766   5.1081932
  Se   24.783867   17.204835   5.1306584
  Se   21.833406   15.671731   5.1370410
  Se   18.882946   14.138627   5.1427674
  Se   15.932486   12.605523   5.1429978
  Se   12.982025   11.072419   5.1370410
  Se   10.031565   9.5393149   5.1309375
  Se   7.0811049   8.0062107   5.1226827
  Se   4.1306445   6.4731065   5.1131644
  Se   1.1801841   4.9400023   5.1097980
  Se   -1.770276   3.4068982   5.1095563
  Se   24.931390   20.526561   5.1243311
  Se   21.980929   18.993457   5.1309375
  Se   19.030469   17.460353   5.1363334
  Se   16.080009   15.927249   5.1371088
  Se   13.129548   14.394144   5.1367942
  Se   10.179088   12.861040   5.1306584
  Se   7.2286279   11.327936   5.1243310
  Se   4.2781675   9.7948323   5.1158313
  Se   1.3277071   8.2617281   5.1132025
  Se   -1.622753   6.7286239   5.1126177
  Se   22.128452   22.315183   5.1226827
  Se   19.177992   20.782079   5.1286853
  Se   16.227532   19.248974   5.1303133
  Se   13.277071   17.715870   5.1311553
  Se   10.326611   16.182766   5.1298858
  Se   7.3761509   14.649662   5.1237009
  Se   4.4256905   13.116558   5.1175161
  Se   1.4752301   11.583453   5.1164754
  Se   -1.475230   10.050349   5.1159921
  Se   -4.425690   8.5172455   5.1163213
  Se   22.275975   25.636908   5.1131644
  Se   19.325515   24.103804   5.1188933
  Se   16.375055   22.570700   5.1225033
  Se   13.424594   21.037596   5.1239078
  Se   10.474134   19.504492   5.1239284
  Se   7.5236740   17.971388   5.1216654
  Se   4.5732136   16.438283   5.1154806
  Se   1.6227532   14.905179   5.1152664
  Se   -1.327707   13.372075   5.1150460
  Se   -4.278167   11.838971   5.1165781
  Se   19.473038   27.425530   5.1093147
  Se   16.522578   25.892426   5.1127113
  Se   13.572117   24.359322   5.1163213
  Se   10.621657   22.826217   5.1165781
  Se   7.6711970   21.293113   5.1161548
  Se   4.7207366   19.760009   5.1136305
  Se   1.7702762   18.226905   5.1137483