&CONTROL
  prefix = 'bwse2_ang_3_89_n_atoms_1302'
  outdir = '../out/'
  verbosity = 'high'
  pseudo_dir = '../pseudo/'
  tprnfor = true
  calculation = 'relax'
/
&SYSTEM
  assume_isolated = '2D'
  ibrav = 4
  nat = 1302
  ntyp = 2
  occupations = 'fixed'
  ecutwfc = 30
  ecutrho = 120
  input_dft = 'vdw-df-cx'
  a = 48.98030854333198
  c = 32
/
&ELECTRONS
/
&IONS
/
ATOMIC_SPECIES
  W    183.84   'W_pbe_v1.2.uspp.F.UPF'
  Se   78.960   'Se_pbe_v1.uspp.F.UPF'
ATOMIC_POSITIONS angstrom
  W    -21.55585   40.854387   0.0207215
  W    -21.44299   37.531303   0.0146461
  W    -18.62154   39.290582   0.0172155
  W    -15.80009   41.049862   0.0128290
  W    -18.50868   35.967498   0.0111401
  W    -15.68724   37.726778   0.0137096
  W    -12.86579   39.486058   0.0096089
  W    -10.04434   41.245338   0.0023781
  W    -18.39583   32.644414   0.0062058
  W    -15.57438   34.403694   0.0089477
  W    -12.75293   36.162974   0.0117338
  W    -9.931491   37.922254   0.0086368
  W    -7.110044   39.681533   0.0016913
  W    -4.288598   41.440813   -0.004571
  W    -15.46152   31.080610   0.0046597
  W    -12.64007   32.839890   0.0074359
  W    -9.818633   34.599170   0.0102882
  W    -6.997186   36.358449   0.0081597
  W    -4.175740   38.117729   0.0015150
  W    -1.354294   39.877009   -0.001157
  W    1.4671520   41.636289   -0.003829
  W    -15.34866   27.757526   0.0002290
  W    -12.52722   29.516806   0.0031381
  W    -9.705775   31.276085   0.0059903
  W    -6.884329   33.035365   0.0088426
  W    -4.062882   34.794645   0.0076826
  W    -1.241436   36.553925   0.0049294
  W    1.5800099   38.313205   0.0022569
  W    4.4014562   40.072485   -0.000415
  W    7.2229026   41.831764   0.0002291
  W    -12.41436   26.193721   -0.000415
  W    -9.592917   27.953001   0.0032105
  W    -6.771471   29.712281   0.0064476
  W    -3.950024   31.471561   0.0096846
  W    -1.128578   33.230841   0.0091129
  W    1.6928678   34.990121   0.0061617
  W    4.5143141   36.749400   0.0032105
  W    7.3357604   38.508680   0.0031381
  W    10.157206   40.267960   0.0046597
  W    12.978653   42.027240   0.0062058
  W    -12.30150   22.870637   -0.003829
  W    -9.480059   24.629917   0.0022569
  W    -6.658613   26.389197   0.0061617
  W    -3.837167   28.148477   0.0093987
  W    -1.015720   29.907757   0.0100330
  W    1.8057256   31.667036   0.0093988
  W    4.6271720   33.426316   0.0064476
  W    7.4486183   35.185596   0.0059903
  W    10.270064   36.944876   0.0074359
  W    13.091511   38.704156   0.0089477
  W    15.912957   40.463436   0.0111401
  W    18.734403   42.222715   0.0146461
  W    -9.367201   21.306833   -0.001157
  W    -6.545755   23.066113   0.0049293
  W    -3.724309   24.825393   0.0091128
  W    -0.902862   26.584673   0.0100330
  W    1.9185835   28.343952   0.0100330
  W    4.7400298   30.103232   0.0096846
  W    7.5614762   31.862512   0.0088426
  W    10.382922   33.621792   0.0102882
  W    13.204368   35.381072   0.0117338
  W    16.025815   37.140351   0.0137095
  W    18.847261   38.899631   0.0172155
  W    21.668707   40.658911   0.0207215
  W    -9.254344   17.983749   -0.004571
  W    -6.432897   19.743029   0.0015149
  W    -3.611451   21.502309   0.0076826
  W    -0.790004   23.261588   0.0096846
  W    2.0314413   25.020868   0.0093988
  W    4.8528877   26.780148   0.0091129
  W    7.6743340   28.539428   0.0076826
  W    10.495780   30.298708   0.0081597
  W    13.317226   32.057988   0.0086368
  W    16.138673   33.817267   0.0096089
  W    18.960119   35.576547   0.0128289
  W    21.781565   37.335827   0.0154866
  W    24.603012   39.095107   0.0181442
  W    -6.320039   16.419945   0.0016913
  W    -3.498593   18.179224   0.0081597
  W    -0.677147   19.938504   0.0088426
  W    2.1442992   21.697784   0.0064476
  W    4.9657455   23.457064   0.0061617
  W    7.7871919   25.216344   0.0049294
  W    10.608638   26.975624   0.0015150
  W    13.430084   28.734903   0.0016913
  W    16.251530   30.494183   0.0023781
  W    19.072977   32.253463   0.0060801
  W    21.894423   34.012743   0.0094033
  W    24.715869   35.772023   0.0120610
  W    -6.207181   13.096860   0.0023780
  W    -3.385735   14.856140   0.0086368
  W    -0.564289   16.615420   0.0102882
  W    2.2571570   18.374700   0.0059904
  W    5.0786034   20.133980   0.0032106
  W    7.9000497   21.893260   0.0022569
  W    10.721496   23.652539   -0.001157
  W    13.542942   25.411819   -0.004571
  W    16.364388   27.171099   -0.004777
  W    19.185835   28.930379   -0.001150
  W    22.007281   30.689659   0.0025513
  W    24.828727   32.448939   0.0059778
  W    27.650174   34.208218   0.0085707
  W    -3.272877   11.533056   0.0096088
  W    -0.451431   13.292336   0.0117338
  W    2.3700149   15.051616   0.0074360
  W    5.1914612   16.810896   0.0031381
  W    8.0129076   18.570175   -0.000415
  W    10.834353   20.329455   -0.003829
  W    13.655800   22.088735   -0.007292
  W    16.477246   23.848015   -0.010800
  W    19.298692   25.607295   -0.008644
  W    22.120139   27.366575   -0.005046
  W    24.941585   29.125854   -0.001448
  W    27.763032   30.885134   0.0034640
  W    -3.160019   8.2099725   0.0128289
  W    -0.338573   9.9692523   0.0137096
  W    2.4828727   11.728532   0.0089477
  W    5.3043191   13.487812   0.0046597
  W    8.1257654   15.247091   0.0002290
  W    10.947211   17.006371   -0.007399
  W    13.768658   18.765651   -0.010907
  W    16.590104   20.524931   -0.014414
  W    19.411550   22.284211   -0.015444
  W    22.232997   24.043491   -0.013335
  W    25.054443   25.802770   -0.009737
  W    27.875889   27.562050   -0.004458
  W    30.697336   29.321330   0.0019178
  W    -0.225715   6.6461682   0.0172155
  W    2.5957306   8.4054480   0.0111401
  W    5.4171769   10.164727   0.0062058
  W    8.2386233   11.924007   0.0019178
  W    11.060069   13.683287   -0.006394
  W    13.881516   15.442567   -0.014521
  W    16.702962   17.201847   -0.018028
  W    19.524408   18.961127   -0.019344
  W    22.345855   20.720406   -0.019737
  W    25.167301   22.479686   -0.018027
  W    27.988747   24.238966   -0.013017
  W    30.810194   25.998246   -0.006394
  W    -0.112857   3.3230841   0.0207215
  W    2.7085884   5.0823639   0.0146461
  W    5.5300348   6.8416437   0.0085707
  W    8.3514811   8.6009236   0.0034640
  W    11.172927   10.360203   -0.004458
  W    13.994373   12.119483   -0.013017
  W    16.815820   13.878763   -0.021577
  W    19.637266   15.638042   -0.023245
  W    22.458712   17.397322   -0.023638
  W    25.280159   19.156602   -0.024031
  W    28.101605   20.915882   -0.021577
  W    30.923051   22.675162   -0.014521
  W    33.744498   24.434442   -0.007399
  W    0.0000000   0.0000000   0.0242275
  W    2.8214463   1.7592798   0.0181442
  W    5.6428926   3.5185596   0.0120610
  W    8.4643390   5.2778394   0.0059778
  W    11.285785   7.0371193   -0.001448
  W    14.107231   8.7963991   -0.009737
  W    16.928678   10.555678   -0.018027
  W    19.750124   12.314958   -0.024031
  W    22.571570   14.074238   -0.024471
  W    25.393017   15.833518   -0.024471
  W    28.214463   17.592798   -0.023245
  W    31.035909   19.352078   -0.018028
  W    33.857356   21.111357   -0.010907
  W    5.7557505   0.1954755   0.0154866
  W    8.5771968   1.9547553   0.0094034
  W    11.398643   3.7140351   0.0025513
  W    14.220089   5.4733150   -0.005046
  W    17.041535   7.2325948   -0.013335
  W    19.862982   8.9918746   -0.019737
  W    22.684428   10.751154   -0.023638
  W    25.505874   12.510434   -0.024471
  W    28.327321   14.269714   -0.023638
  W    31.148767   16.028994   -0.019344
  W    33.970213   17.788273   -0.014414
  W    36.791660   19.547553   -0.007292
  W    11.511501   0.3909510   0.0060801
  W    14.332947   2.1502309   -0.001150
  W    17.154393   3.9095107   -0.008644
  W    19.975840   5.6687905   -0.015444
  W    22.797286   7.4280703   -0.019344
  W    25.618732   9.1873502   -0.023245
  W    28.440179   10.946630   -0.024031
  W    31.261625   12.705909   -0.019737
  W    34.083071   14.465189   -0.015444
  W    36.904518   16.224469   -0.010800
  W    17.267251   0.5864266   -0.004777
  W    20.088697   2.3457064   -0.010800
  W    22.910144   4.1049862   -0.014414
  W    25.731590   5.8642661   -0.018028
  W    28.553037   7.6235459   -0.021577
  W    31.374483   9.3828257   -0.018027
  W    34.195929   11.142105   -0.013335
  W    37.017376   12.901385   -0.008644
  W    39.838822   14.660665   -0.004777
  W    23.023002   0.7819021   -0.007292
  W    25.844448   2.5411819   -0.010907
  W    28.665894   4.3004618   -0.014521
  W    31.487341   6.0597416   -0.013017
  W    34.308787   7.8190214   -0.009737
  W    37.130233   9.5783013   -0.005046
  W    39.951680   11.337581   -0.001150
  W    28.778752   0.9773776   -0.007399
  W    31.600199   2.7366575   -0.006394
  W    34.421645   4.4959373   -0.004458
  W    37.243091   6.2552171   -0.001448
  W    40.064538   8.0144970   0.0025513
  W    42.885984   9.7737768   0.0060801
  W    34.534503   1.1728532   0.0019178
  W    37.355949   2.9321330   0.0034640
  W    40.177395   4.6914128   0.0059778
  W    42.998842   6.4506927   0.0094033
  W    40.290253   1.3683287   0.0085707
  W    43.111700   3.1276085   0.0120610
  W    45.933146   4.8868884   0.0154866
  W    46.046004   1.5638042   0.0181442
  W    46.158862   1.7592798   6.7827409
  W    43.224558   0.1954755   6.7852166
  W    43.337415   3.5185596   6.7881415
  W    40.403111   1.9547553   6.7906171
  W    37.468807   0.3909510   6.7940115
  W    43.450273   6.8416437   6.7913012
  W    40.515969   5.2778394   6.7935420
  W    37.581665   3.7140351   6.7970768
  W    34.647361   2.1502309   6.8010040
  W    31.713056   0.5864266   6.8048430
  W    40.628827   8.6009236   6.7959424
  W    37.694523   7.0371193   6.8009775
  W    34.760218   5.4733150   6.8047158
  W    31.825914   3.9095107   6.8084541
  W    28.891610   2.3457064   6.8107102
  W    25.957306   0.7819021   6.8071845
  W    40.741685   11.924007   6.7976670
  W    37.807381   10.360203   6.8043162
  W    34.873076   8.7963991   6.8098677
  W    31.938772   7.2325948   6.8136060
  W    29.004468   5.6687905   6.8158045
  W    26.070164   4.1049862   6.8147308
  W    23.135860   2.5411819   6.8112051
  W    20.201555   0.9773776   6.8076794
  W    37.920238   13.683287   6.8065098
  W    34.985934   12.119483   6.8134994
  W    32.051630   10.555678   6.8187578
  W    29.117326   8.9918746   6.8205392
  W    26.183022   7.4280703   6.8201087
  W    23.248717   5.8642661   6.8187514
  W    20.314413   4.3004618   6.8152257
  W    17.380109   2.7366575   6.8065098
  W    14.445805   1.1728532   6.7976670
  W    38.033096   17.006371   6.8076794
  W    35.098792   15.442567   6.8152257
  W    32.164488   13.878763   6.8226825
  W    29.230184   12.314958   6.8252738
  W    26.295879   10.751154   6.8248434
  W    23.361575   9.1873502   6.8244130
  W    20.427271   7.6235459   6.8226825
  W    17.492967   6.0597416   6.8134993
  W    14.558663   4.4959373   6.8043162
  W    11.624358   2.9321330   6.7959424
  W    8.6900547   1.3683287   6.7913012
  W    35.211650   18.765651   6.8112051
  W    32.277346   17.201847   6.8187514
  W    29.343041   15.638042   6.8244130
  W    26.408737   14.074238   6.8257698
  W    23.474433   12.510434   6.8257698
  W    20.540129   10.946630   6.8252738
  W    17.605825   9.3828257   6.8187578
  W    14.671520   7.8190214   6.8098677
  W    11.737216   6.2552171   6.8009775
  W    8.8029125   4.6914128   6.7935420
  W    5.8686083   3.1276085   6.7881415
  W    2.9343041   1.5638042   6.7827409
  W    0.0000000   0.0000000   6.7773404
  W    35.324508   22.088735   6.8071845
  W    32.390204   20.524931   6.8147308
  W    29.455899   18.961127   6.8201087
  W    26.521595   17.397322   6.8248434
  W    23.587291   15.833518   6.8257698
  W    20.652987   14.269714   6.8248434
  W    17.718683   12.705909   6.8205392
  W    14.784378   11.142105   6.8136060
  W    11.850074   9.5783013   6.8047158
  W    8.9157704   8.0144970   6.7970768
  W    5.9814662   6.4506927   6.7906171
  W    3.0471620   4.8868884   6.7852166
  W    0.1128578   3.3230841   6.7805561
  W    32.503061   23.848015   6.8107102
  W    29.568757   22.284211   6.8158045
  W    26.634453   20.720406   6.8205392
  W    23.700149   19.156602   6.8252738
  W    20.765845   17.592798   6.8244130
  W    17.831540   16.028994   6.8201087
  W    14.897236   14.465189   6.8158045
  W    11.962932   12.901385   6.8084542
  W    9.0286283   11.337581   6.8010040
  W    6.0943241   9.7737768   6.7940115
  W    3.1600199   8.2099725   6.7876922
  W    0.2257157   6.6461682   6.7837719
  W    -2.708588   5.0823639   6.7859287
  W    32.615919   27.171099   6.8048430
  W    29.681615   25.607295   6.8084541
  W    26.747311   24.043491   6.8136060
  W    23.813007   22.479686   6.8187578
  W    20.878702   20.915882   6.8226825
  W    17.944398   19.352078   6.8187514
  W    15.010094   17.788273   6.8147308
  W    12.075790   16.224469   6.8107102
  W    9.1414861   14.660665   6.8048430
  W    6.2071819   13.096860   6.7979387
  W    3.2728777   11.533056   6.7909463
  W    0.3385735   9.9692523   6.7869876
  W    -2.595730   8.4054480   6.7891444
  W    29.794473   28.930379   6.8010040
  W    26.860169   27.366575   6.8047158
  W    23.925865   25.802770   6.8098677
  W    20.991560   24.238966   6.8134993
  W    18.057256   22.675162   6.8152257
  W    15.122952   21.111357   6.8112051
  W    12.188648   19.547553   6.8071845
  W    9.2543440   17.983749   6.8047138
  W    6.3200398   16.419945   6.7987004
  W    3.3857356   14.856140   6.7920117
  W    0.4514314   13.292336   6.7889608
  W    -2.482872   11.728532   6.7913640
  W    -5.417176   10.164727   6.7936532
  W    29.907331   32.253463   6.7940115
  W    26.973027   30.689659   6.7970768
  W    24.038722   29.125854   6.8009775
  W    21.104418   27.562050   6.8043162
  W    18.170114   25.998246   6.8065098
  W    15.235810   24.434442   6.8076794
  W    12.301506   22.870637   6.8037471
  W    9.3672018   21.306833   6.8013472
  W    6.4328976   19.743029   6.7989473
  W    3.4985934   18.179224   6.7925578
  W    0.5642892   16.615420   6.7904262
  W    -2.370014   15.051616   6.7929994
  W    -5.304319   13.487812   6.7953778
  W    27.085884   34.012743   6.7906171
  W    24.151580   32.448939   6.7935420
  W    21.217276   30.885134   6.7959424
  W    18.282972   29.321330   6.7976670
  W    15.348668   27.757526   6.7995202
  W    12.414363   26.193721   6.8003805
  W    9.4800597   24.629917   6.7979805
  W    6.5457555   23.066113   6.7955806
  W    3.6114513   21.502309   6.7931039
  W    0.6771471   19.938504   6.7918917
  W    -2.257157   18.374700   6.7944648
  W    -5.191461   16.810896   6.7970380
  W    -8.125765   15.247091   6.7995203
  W    27.198742   37.335827   6.7852166
  W    24.264438   35.772023   6.7881415
  W    21.330134   34.208218   6.7913012
  W    18.395830   32.644414   6.7936532
  W    15.461525   31.080610   6.7953778
  W    12.527221   29.516806   6.7970380
  W    9.5929175   27.953001   6.7970784
  W    6.6586133   26.389197   6.7943961
  W    3.7243091   24.825393   6.7917138
  W    0.7900049   23.261588   6.7911926
  W    -2.144299   21.697784   6.7941355
  W    -5.078603   20.133980   6.7970784
  W    -8.012907   18.570175   6.8003805
  W    24.377296   39.095107   6.7827409
  W    21.442992   37.531303   6.7859287
  W    18.508688   35.967498   6.7891444
  W    15.574383   34.403694   6.7913640
  W    12.640079   32.839890   6.7929994
  W    9.7057754   31.276085   6.7944648
  W    6.7714712   29.712281   6.7941355
  W    3.8371670   28.148477   6.7914532
  W    0.9028628   26.584673   6.7908805
  W    -2.031441   25.020868   6.7914532
  W    -4.965745   23.457064   6.7943961
  W    -7.900049   21.893260   6.7979806
  W    -10.83435   20.329455   6.8037472
  W    21.555850   40.854387   6.7805561
  W    18.621545   39.290582   6.7837719
  W    15.687241   37.726778   6.7869876
  W    12.752937   36.162974   6.7889608
  W    9.8186332   34.599170   6.7904262
  W    6.8843290   33.035365   6.7918917
  W    3.9500248   31.471561   6.7911926
  W    1.0157206   29.907757   6.7908805
  W    -1.918583   28.343952   6.7908805
  W    -4.852887   26.780148   6.7917138
  W    -7.787191   25.216344   6.7955807
  W    -10.72149   23.652539   6.8013472
  W    15.800099   41.049862   6.7876922
  W    12.865795   39.486058   6.7909462
  W    9.9314911   37.922254   6.7920117
  W    6.9971869   36.358449   6.7925578
  W    4.0628827   34.794645   6.7931039
  W    1.1285785   33.230841   6.7917138
  W    -1.805725   31.667036   6.7914532
  W    -4.740029   30.103232   6.7911927
  W    -7.674334   28.539428   6.7931039
  W    -10.60863   26.975624   6.7989473
  W    -13.54294   25.411819   6.8047139
  W    10.044348   41.245338   6.7979387
  W    7.1100447   39.681533   6.7987004
  W    4.1757405   38.117729   6.7989473
  W    1.2414363   36.553925   6.7955806
  W    -1.692867   34.990121   6.7943961
  W    -4.627172   33.426316   6.7941355
  W    -7.561476   31.862512   6.7918916
  W    -10.49578   30.298708   6.7925578
  W    -13.43008   28.734903   6.7987004
  W    4.2885984   41.440813   6.8047139
  W    1.3542942   39.877009   6.8013472
  W    -1.580009   38.313205   6.7979805
  W    -4.514314   36.749400   6.7970784
  W    -7.448618   35.185596   6.7944648
  W    -10.38292   33.621792   6.7904262
  W    -13.31722   32.057988   6.7920117
  W    -16.25153   30.494183   6.7979387
  W    -1.467152   41.636289   6.8037471
  W    -4.401456   40.072485   6.8003805
  W    -7.335760   38.508680   6.7970379
  W    -10.27006   36.944876   6.7929994
  W    -13.20436   35.381072   6.7889608
  W    -16.13867   33.817267   6.7909462
  W    -7.222902   41.831764   6.7995202
  W    -10.15720   40.267960   6.7953778
  W    -13.09151   38.704156   6.7913640
  W    -16.02581   37.140351   6.7869876
  W    -18.96011   35.576547   6.7876922
  W    -12.97865   42.027240   6.7936532
  W    -15.91295   40.463436   6.7891444
  W    -18.84726   38.899631   6.7837719
  W    -18.73440   42.222715   6.7859287
  W    -21.66870   40.658911   6.7805561
  Se   -22.45871   39.160265   1.6971019
  Se   -19.63726   40.919545   1.6968228
  Se   -19.52440   37.596461   1.6939948
  Se   -16.70296   39.355741   1.6937000
  Se   -13.88151   41.115021   1.6933674
  Se   -19.41155   34.273377   1.6911667
  Se   -16.59010   36.032657   1.6908765
  Se   -13.76865   37.791937   1.6905439
  Se   -10.94721   39.551216   1.6902113
  Se   -8.125765   41.310496   1.6813390
  Se   -16.47724   32.709573   1.6880530
  Se   -13.65580   34.468852   1.6877204
  Se   -10.83435   36.228132   1.6875894
  Se   -8.012907   37.987412   1.6876904
  Se   -5.191461   39.746692   1.6820517
  Se   -2.370014   41.505972   1.6740535
  Se   -16.36438   29.386489   1.6810281
  Se   -13.54294   31.145768   1.6890800
  Se   -10.72149   32.905048   1.6891810
  Se   -7.900049   34.664328   1.6892819
  Se   -5.078603   36.423608   1.6894233
  Se   -2.257157   38.182888   1.6845765
  Se   0.5642892   39.942168   1.6765783
  Se   3.3857356   41.701447   1.6725504
  Se   -13.43008   27.822684   1.6817283
  Se   -10.60863   29.581964   1.6907725
  Se   -7.787191   31.341244   1.6908735
  Se   -4.965745   33.100524   1.6910105
  Se   -2.144299   34.859804   1.6911631
  Se   0.6771471   36.619083   1.6871013
  Se   3.4985934   38.378363   1.6824286
  Se   6.3200398   40.137643   1.6817283
  Se   9.1414861   41.896923   1.6810281
  Se   -13.31722   24.499600   1.6725503
  Se   -10.49578   26.258880   1.6824286
  Se   -7.674334   28.018160   1.6923068
  Se   -4.852887   29.777440   1.6925977
  Se   -2.031441   31.536719   1.6927503
  Se   0.7900049   33.295999   1.6929028
  Se   3.6114513   35.055279   1.6923068
  Se   6.4328976   36.814559   1.6907725
  Se   9.2543440   38.573839   1.6890800
  Se   12.075790   40.333119   1.6880530
  Se   14.897236   42.092398   1.6911667
  Se   -10.38292   22.935796   1.6765783
  Se   -7.561476   24.695076   1.6871012
  Se   -4.740029   26.454355   1.6929028
  Se   -1.918583   28.213635   1.6930842
  Se   0.9028628   29.972915   1.6930842
  Se   3.7243091   31.732195   1.6925977
  Se   6.5457555   33.491475   1.6908735
  Se   9.3672018   35.250755   1.6891810
  Se   12.188648   37.010034   1.6877204
  Se   15.010094   38.769314   1.6908765
  Se   17.831540   40.528594   1.6939948
  Se   20.652987   42.287874   1.6971019
  Se   -10.27006   19.612712   1.6740535
  Se   -7.448618   21.371992   1.6845764
  Se   -4.627172   23.131271   1.6911631
  Se   -1.805725   24.890551   1.6927503
  Se   1.0157206   26.649831   1.6930842
  Se   3.8371670   28.409111   1.6927503
  Se   6.6586133   30.168391   1.6910105
  Se   9.4800597   31.927671   1.6892819
  Se   12.301506   33.686950   1.6875894
  Se   15.122952   35.446230   1.6905439
  Se   17.944398   37.205510   1.6937000
  Se   20.765845   38.964790   1.6968228
  Se   23.587291   40.724070   1.6976860
  Se   -7.335760   18.048907   1.6820517
  Se   -4.514314   19.808187   1.6894233
  Se   -1.692867   21.567467   1.6910105
  Se   1.1285785   23.326747   1.6925977
  Se   3.9500248   25.086027   1.6929028
  Se   6.7714712   26.845307   1.6911631
  Se   9.5929175   28.604586   1.6894233
  Se   12.414363   30.363866   1.6876904
  Se   15.235810   32.123146   1.6902113
  Se   18.057256   33.882426   1.6933674
  Se   20.878702   35.641706   1.6964316
  Se   23.700149   37.400986   1.6973810
  Se   -7.222902   14.725823   1.6813389
  Se   -4.401456   16.485103   1.6876904
  Se   -1.580009   18.244383   1.6892819
  Se   1.2414363   20.003663   1.6908735
  Se   4.0628827   21.762943   1.6923068
  Se   6.8843290   23.522222   1.6871013
  Se   9.7057754   25.281502   1.6845765
  Se   12.527221   27.040782   1.6820517
  Se   15.348668   28.800062   1.6813389
  Se   18.170114   30.559342   1.6834409
  Se   20.991560   32.318622   1.6855428
  Se   23.813007   34.077901   1.6905725
  Se   26.634453   35.837181   1.6942739
  Se   -4.288598   13.162019   1.6902113
  Se   -1.467152   14.921299   1.6875894
  Se   1.3542942   16.680579   1.6891810
  Se   4.1757405   18.439858   1.6907725
  Se   6.9971869   20.199138   1.6824286
  Se   9.8186332   21.958418   1.6765783
  Se   12.640079   23.717698   1.6740535
  Se   15.461525   25.476978   1.6730208
  Se   18.282972   27.236258   1.6726705
  Se   21.104418   28.995537   1.6746541
  Se   23.925865   30.754817   1.6792076
  Se   26.747311   32.514097   1.6866918
  Se   -4.175740   9.8389353   1.6933674
  Se   -1.354294   11.598215   1.6905439
  Se   1.4671520   13.357495   1.6877204
  Se   4.2885984   15.116774   1.6890800
  Se   7.1100447   16.876054   1.6817283
  Se   9.9314911   18.635334   1.6725503
  Se   12.752937   20.394614   1.6660553
  Se   15.574383   22.153894   1.6648232
  Se   18.395830   23.913174   1.6644729
  Se   21.217276   25.672453   1.6641225
  Se   24.038722   27.431733   1.6678428
  Se   26.860169   29.191013   1.6753269
  Se   29.681615   30.950293   1.6828111
  Se   -1.241436   8.2751310   1.6937000
  Se   1.5800099   10.034410   1.6908765
  Se   4.4014562   11.793690   1.6880530
  Se   7.2229026   13.552970   1.6810281
  Se   10.044348   15.312250   1.6719572
  Se   12.865795   17.071530   1.6629669
  Se   15.687241   18.830810   1.6574602
  Se   18.508688   20.590089   1.6574486
  Se   21.330134   22.349369   1.6574371
  Se   24.151580   24.108649   1.6586212
  Se   26.973027   25.867929   1.6655042
  Se   29.794473   27.627209   1.6732259
  Se   -1.128578   4.9520469   1.6968228
  Se   1.6928678   6.7113267   1.6939948
  Se   4.5143141   8.4706065   1.6911667
  Se   7.3357604   10.229886   1.6828111
  Se   10.157206   11.989166   1.6732259
  Se   12.978653   13.748446   1.6642356
  Se   15.800099   15.507725   1.6567850
  Se   18.621545   17.267005   1.6526187
  Se   21.442992   19.026285   1.6526071
  Se   24.264438   20.785565   1.6533927
  Se   27.085884   22.544845   1.6577031
  Se   29.907331   24.304125   1.6642356
  Se   32.728777   26.063404   1.6719573
  Se   1.8057256   3.3882426   1.6971019
  Se   4.6271720   5.1475224   1.6942739
  Se   7.4486183   6.9068023   1.6866918
  Se   10.270064   8.6660821   1.6753269
  Se   13.091511   10.425361   1.6655042
  Se   15.912957   12.184641   1.6577031
  Se   18.734403   13.943921   1.6524746
  Se   21.555850   15.703201   1.6477772
  Se   24.377296   17.462481   1.6481642
  Se   27.198742   19.221761   1.6524746
  Se   30.020189   20.981040   1.6567850
  Se   32.841635   22.740320   1.6629670
  Se   1.9185835   0.0651585   1.6976860
  Se   4.7400298   1.8244383   1.6973810
  Se   7.5614762   3.5837181   1.6905725
  Se   10.382922   5.3429980   1.6792076
  Se   13.204368   7.1022778   1.6678427
  Se   16.025815   8.8615576   1.6586211
  Se   18.847261   10.620837   1.6533926
  Se   21.668707   12.380117   1.6481641
  Se   24.490154   14.139397   1.6429356
  Se   27.311600   15.898676   1.6477772
  Se   30.133046   17.657956   1.6526187
  Se   32.954493   19.417236   1.6574602
  Se   35.775939   21.176516   1.6660553
  Se   7.6743340   0.2606340   1.6964316
  Se   10.495780   2.0199138   1.6855428
  Se   13.317226   3.7791937   1.6746541
  Se   16.138673   5.5384735   1.6641225
  Se   18.960119   7.2977533   1.6574371
  Se   21.781565   9.0570332   1.6526071
  Se   24.603012   10.816313   1.6477772
  Se   27.424458   12.575592   1.6481641
  Se   30.245904   14.334872   1.6526071
  Se   33.067351   16.094152   1.6574486
  Se   35.888797   17.853432   1.6648232
  Se   13.430084   0.4561095   1.6834409
  Se   16.251530   2.2153894   1.6726705
  Se   19.072977   3.9746692   1.6644729
  Se   21.894423   5.7339490   1.6574486
  Se   24.715869   7.4932289   1.6526187
  Se   27.537316   9.2525087   1.6524746
  Se   30.358762   11.011788   1.6533926
  Se   33.180209   12.771068   1.6574371
  Se   36.001655   14.530348   1.6644729
  Se   38.823101   16.289628   1.6730208
  Se   19.185835   0.6515851   1.6730208
  Se   22.007281   2.4108649   1.6648232
  Se   24.828727   4.1701447   1.6574602
  Se   27.650174   5.9294246   1.6567850
  Se   30.471620   7.6887044   1.6577031
  Se   33.293066   9.4479842   1.6586212
  Se   36.114513   11.207264   1.6641225
  Se   38.935959   12.966543   1.6726705
  Se   24.941585   0.8470606   1.6660553
  Se   27.763032   2.6063404   1.6629670
  Se   30.584478   4.3656203   1.6642356
  Se   33.405924   6.1249001   1.6655042
  Se   36.227371   7.8841799   1.6678427
  Se   39.048817   9.6434598   1.6746541
  Se   41.870263   11.402739   1.6834409
  Se   30.697336   1.0425361   1.6719573
  Se   33.518782   2.8018160   1.6732259
  Se   36.340228   4.5610958   1.6753269
  Se   39.161675   6.3203756   1.6792076
  Se   41.983121   8.0796555   1.6855428
  Se   36.453086   1.2380117   1.6828111
  Se   39.274533   2.9972915   1.6866918
  Se   42.095979   4.7565713   1.6905725
  Se   44.917425   6.5158512   1.6964316
  Se   42.208837   1.4334872   1.6942739
  Se   45.030283   3.1927671   1.6973810
  Se   47.964587   1.6289628   1.6976860
  Se   -22.45871   39.160265   -1.664558
  Se   -19.63726   40.919545   -1.664811
  Se   -19.52440   37.596461   -1.667491
  Se   -16.70296   39.355741   -1.667835
  Se   -13.88151   41.115021   -1.668391
  Se   -19.41155   34.273377   -1.670170
  Se   -16.59010   36.032657   -1.670488
  Se   -13.76865   37.791937   -1.671044
  Se   -10.94721   39.551216   -1.671600
  Se   -8.125765   41.310496   -1.677774
  Se   -16.47724   32.709573   -1.673140
  Se   -13.65580   34.468852   -1.673696
  Se   -10.83435   36.228132   -1.674113
  Se   -8.012907   37.987412   -1.674384
  Se   -5.191461   39.746692   -1.677595
  Se   -2.370014   41.505972   -1.681945
  Se   -16.36438   29.386489   -1.677329
  Se   -13.54294   31.145768   -1.673485
  Se   -10.72149   32.905048   -1.673757
  Se   -7.900049   34.664328   -1.674028
  Se   -5.078603   36.423608   -1.674059
  Se   -2.257157   38.182888   -1.676795
  Se   0.5642892   39.942168   -1.681144
  Se   3.3857356   41.701447   -1.682875
  Se   -13.43008   27.822684   -1.677737
  Se   -10.60863   29.581964   -1.673401
  Se   -7.787191   31.341244   -1.673672
  Se   -4.965745   33.100524   -1.673731
  Se   -2.144299   34.859804   -1.673699
  Se   0.6771471   36.619083   -1.675994
  Se   3.4985934   38.378363   -1.678145
  Se   6.3200398   40.137643   -1.677737
  Se   9.1414861   41.896923   -1.677329
  Se   -13.31722   24.499600   -1.682875
  Se   -10.49578   26.258880   -1.678145
  Se   -7.674334   28.018160   -1.673416
  Se   -4.852887   29.777440   -1.673403
  Se   -2.031441   31.536719   -1.673371
  Se   0.7900049   33.295999   -1.673339
  Se   3.6114513   35.055279   -1.673416
  Se   6.4328976   36.814559   -1.673401
  Se   9.2543440   38.573839   -1.673485
  Se   12.075790   40.333119   -1.673140
  Se   14.897236   42.092398   -1.670170
  Se   -10.38292   22.935796   -1.681144
  Se   -7.561476   24.695076   -1.675994
  Se   -4.740029   26.454355   -1.673339
  Se   -1.918583   28.213635   -1.673301
  Se   0.9028628   29.972915   -1.673301
  Se   3.7243091   31.732195   -1.673403
  Se   6.5457555   33.491475   -1.673672
  Se   9.3672018   35.250755   -1.673757
  Se   12.188648   37.010034   -1.673696
  Se   15.010094   38.769314   -1.670488
  Se   17.831540   40.528594   -1.667491
  Se   20.652987   42.287874   -1.664558
  Se   -10.27006   19.612712   -1.681945
  Se   -7.448618   21.371992   -1.676795
  Se   -4.627172   23.131271   -1.673699
  Se   -1.805725   24.890551   -1.673371
  Se   1.0157206   26.649831   -1.673301
  Se   3.8371670   28.409111   -1.673371
  Se   6.6586133   30.168391   -1.673731
  Se   9.4800597   31.927671   -1.674028
  Se   12.301506   33.686950   -1.674113
  Se   15.122952   35.446230   -1.671044
  Se   17.944398   37.205510   -1.667835
  Se   20.765845   38.964790   -1.664811