&CONTROL
  prefix = 'bwse2_ang_7_34_n_atoms_366'
  outdir = '../out/'
  verbosity = 'high'
  pseudo_dir = '../pseudo/'
  tprnfor = true
  calculation = 'relax'
/
&SYSTEM
  assume_isolated = '2D'
  ibrav = 4
  nat = 366
  ntyp = 2
  occupations = 'fixed'
  ecutwfc = 30
  ecutrho = 120
  input_dft = 'vdw-df-cx'
  a = 25.969080172389624
  c = 32
/
&ELECTRONS
/
&IONS
/
ATOMIC_SPECIES
  W    183.84   'W_pbe_v1.2.uspp.F.UPF'
  Se   78.960   'Se_pbe_v1.uspp.F.UPF'
ATOMIC_POSITIONS angstrom
  W    -10.00448   21.015136   0.0179013
  W    -9.791620   17.696957   0.0071450
  W    -7.024423   19.540390   0.0125344
  W    -4.257226   21.383823   0.0015218
  W    -6.811562   16.222210   0.0044780
  W    -4.044364   18.065643   0.0100435
  W    -1.277167   19.909076   0.0028875
  W    1.4900291   21.752509   -0.002462
  W    -6.598700   12.904031   -0.002462
  W    -3.831503   14.747464   0.0057279
  W    -1.064306   16.590897   0.0100330
  W    1.7028905   18.434330   0.0057280
  W    4.4700875   20.277763   0.0044780
  W    7.2372846   22.121196   0.0071450
  W    -3.618642   11.429284   0.0028875
  W    -0.851445   13.272717   0.0100330
  W    1.9157518   15.116150   0.0100330
  W    4.6829488   16.959584   0.0100435
  W    7.4501459   18.803017   0.0125344
  W    10.217343   20.646450   0.0179013
  W    -3.405781   8.1111053   0.0015218
  W    -0.638583   9.9545384   0.0100436
  W    2.1286131   11.797971   0.0057280
  W    4.8958101   13.641404   0.0028875
  W    7.6630072   15.484837   0.0015218
  W    10.430204   17.328270   0.0069876
  W    13.197401   19.171703   0.0127339
  W    -0.425722   6.6363589   0.0125344
  W    2.3414744   8.4797920   0.0044780
  W    5.1086715   10.323225   -0.002462
  W    7.8758685   12.166658   -0.008669
  W    10.643065   14.010091   -0.006826
  W    13.410262   15.853524   0.0003823
  W    -0.212861   3.3181794   0.0179013
  W    2.5543357   5.1616125   0.0071450
  W    5.3215328   7.0050455   -0.003402
  W    8.0887298   8.8484786   -0.015831
  W    10.855926   10.691911   -0.018776
  W    13.623124   12.535344   -0.015281
  W    16.390321   14.378777   -0.003402
  W    0.0000000   0.0000000   0.0242275
  W    2.7671970   1.8434330   0.0127339
  W    5.5343941   3.6868660   0.0003823
  W    8.3015912   5.5302991   -0.015281
  W    11.068788   7.3737321   -0.024471
  W    13.835985   9.2171652   -0.024471
  W    16.603182   11.060598   -0.015831
  W    5.7472554   0.3686866   0.0069876
  W    8.5144525   2.2121196   -0.006826
  W    11.281649   4.0555526   -0.018776
  W    14.048846   5.8989857   -0.024471
  W    16.816043   7.7424187   -0.018776
  W    19.583240   9.5858518   -0.008669
  W    11.494510   0.7373732   -0.008669
  W    14.261707   2.5808062   -0.015831
  W    17.028905   4.4242393   -0.015281
  W    19.796102   6.2676723   -0.006826
  W    17.241766   1.1060598   -0.003402
  W    20.008963   2.9494928   0.0003823
  W    22.776160   4.7929259   0.0069876
  W    22.989021   1.4747464   0.0127339
  W    23.201883   1.8434330   6.7875365
  W    20.221824   0.3686866   6.7930599
  W    20.434686   3.6868660   6.7990298
  W    17.454627   2.2121196   6.8065379
  W    14.474569   0.7373732   6.8085554
  W    20.647547   7.0050455   6.8033057
  W    17.667488   5.5302991   6.8158363
  W    14.687430   4.0555526   6.8194808
  W    11.707372   2.5808062   6.8164983
  W    8.7273138   1.1060598   6.8033057
  W    17.880350   8.8484786   6.8164983
  W    14.900291   7.3737321   6.8257698
  W    11.920233   5.8989857   6.8257698
  W    8.9401751   4.4242393   6.8158363
  W    5.9601167   2.9494928   6.7990299
  W    2.9800583   1.4747464   6.7875365
  W    0.0000000   0.0000000   6.7773404
  W    18.093211   12.166658   6.8085554
  W    15.113153   10.691911   6.8194808
  W    12.133094   9.2171652   6.8257698
  W    9.1530364   7.7424187   6.8194808
  W    6.1729780   6.2676723   6.8065379
  W    3.1929196   4.7929259   6.7930600
  W    0.2128613   3.3181794   6.7831560
  W    15.326014   14.010091   6.8065379
  W    12.345956   12.535344   6.8158363
  W    9.3658977   11.060598   6.8164983
  W    6.3858393   9.5858518   6.8085554
  W    3.4057810   8.1111053   6.7988324
  W    0.4257226   6.6363589   6.7881909
  W    -2.554335   5.1616125   6.7927695
  W    15.538875   17.328270   6.7930599
  W    12.558817   15.853524   6.7990298
  W    9.5787590   14.378777   6.8033057
  W    6.5987007   12.904031   6.8023908
  W    3.6186423   11.429284   6.7975669
  W    0.6385839   9.9545384   6.7907368
  W    -2.341474   8.4797920   6.7957683
  W    12.771678   19.171703   6.7875365
  W    9.7916203   17.696957   6.7927695
  W    6.8115620   16.222210   6.7957683
  W    3.8315036   14.747464   6.7947901
  W    0.8514452   13.272717   6.7908805
  W    -2.128613   11.797971   6.7947901
  W    -5.108671   10.323225   6.8023909
  W    10.004481   21.015136   6.7831560
  W    7.0244233   19.540390   6.7881909
  W    4.0443649   18.065643   6.7907368
  W    1.0643065   16.590897   6.7908805
  W    -1.915751   15.116150   6.7908805
  W    -4.895810   13.641404   6.7975670
  W    4.2572262   21.383823   6.7988324
  W    1.2771678   19.909076   6.7975669
  W    -1.702890   18.434330   6.7947901
  W    -4.682948   16.959584   6.7907368
  W    -7.663007   15.484837   6.7988324
  W    -1.490029   21.752509   6.8023908
  W    -4.470087   20.277763   6.7957683
  W    -7.450145   18.803017   6.7881909
  W    -7.237284   22.121196   6.7927695
  W    -10.21734   20.646450   6.7831560
  Se   -10.85592   19.294599   1.6935809
  Se   -8.088729   21.138032   1.6932069
  Se   -7.875868   17.819852   1.6877696
  Se   -5.108671   19.663285   1.6875803
  Se   -2.341474   21.506718   1.6787876
  Se   -7.663007   14.501673   1.6786171
  Se   -4.895810   16.345106   1.6906395
  Se   -2.128613   18.188539   1.6907768
  Se   0.6385839   20.031972   1.6829403
  Se   3.4057810   21.875405   1.6786171
  Se   -4.682948   13.026926   1.6829402
  Se   -1.915751   14.870359   1.6930842
  Se   0.8514452   16.713792   1.6930842
  Se   3.6186423   18.557225   1.6906395
  Se   6.3858393   20.400659   1.6877696
  Se   9.1530364   22.244092   1.6935809
  Se   -4.470087   9.7087473   1.6787876
  Se   -1.702890   11.552180   1.6907768
  Se   1.0643065   13.395613   1.6930842
  Se   3.8315036   15.239046   1.6907768
  Se   6.5987006   17.082479   1.6875803
  Se   9.3658977   18.925912   1.6932069
  Se   12.133094   20.769345   1.6976860
  Se   -1.490029   8.2340009   1.6875803
  Se   1.2771678   10.077433   1.6906395
  Se   4.0443649   11.920867   1.6829403
  Se   6.8115620   13.764300   1.6787876
  Se   9.5787590   15.607733   1.6799459
  Se   12.345956   17.451166   1.6863056
  Se   -1.277167   4.9158214   1.6932069
  Se   1.4900291   6.7592544   1.6877696
  Se   4.2572262   8.6026875   1.6786171
  Se   7.0244233   10.446120   1.6632813
  Se   9.7916203   12.289553   1.6625857
  Se   12.558817   14.132986   1.6649981
  Se   15.326014   15.976419   1.6796075
  Se   1.7028905   3.4410750   1.6935809
  Se   4.4700875   5.2845080   1.6796075
  Se   7.2372846   7.1279411   1.6624426
  Se   10.004481   8.9713741   1.6519051
  Se   12.771678   10.814807   1.6526814
  Se   15.538875   12.658240   1.6624426
  Se   1.9157518   0.1228955   1.6976860
  Se   4.6829488   1.9663285   1.6863055
  Se   7.4501459   3.8097616   1.6649981
  Se   10.217343   5.6531946   1.6526814
  Se   12.984540   7.4966277   1.6429356
  Se   15.751737   9.3400607   1.6519051
  Se   18.518934   11.183493   1.6632813
  Se   7.6630072   0.4915821   1.6799459
  Se   10.430204   2.3350151   1.6625857
  Se   13.197401   4.1784482   1.6519051
  Se   15.964598   6.0218812   1.6526814
  Se   18.731795   7.8653143   1.6625857
  Se   13.410262   0.8602687   1.6632813
  Se   16.177459   2.7037017   1.6624426
  Se   18.944656   4.5471348   1.6649981
  Se   21.711853   6.3905678   1.6799459
  Se   19.157518   1.2289553   1.6796075
  Se   21.924715   3.0723884   1.6863055
  Se   24.904773   1.5976419   1.6976860
  Se   -10.85592   19.294599   -1.667887
  Se   -8.088729   21.138032   -1.668422
  Se   -7.875868   17.819852   -1.673546
  Se   -5.108671   19.663285   -1.674240
  Se   -2.341474   21.506718   -1.679314
  Se   -7.663007   14.501673   -1.679190
  Se   -4.895810   16.345106   -1.673575
  Se   -2.128613   18.188539   -1.673779
  Se   0.6385839   20.031972   -1.678116
  Se   3.4057810   21.875405   -1.679190
  Se   -4.682948   13.026926   -1.678116
  Se   -1.915751   14.870359   -1.673301
  Se   0.8514452   16.713792   -1.673301
  Se   3.6186423   18.557225   -1.673575
  Se   6.3858393   20.400659   -1.673546
  Se   9.1530364   22.244092   -1.667887
  Se   -4.470087   9.7087473   -1.679314
  Se   -1.702890   11.552180   -1.673779
  Se   1.0643065   13.395613   -1.673301
  Se   3.8315036   15.239046   -1.673779
  Se   6.5987006   17.082479   -1.674240
  Se   9.3658977   18.925912   -1.668422
  Se   12.133094   20.769345   -1.663979
  Se   -1.490029   8.2340009   -1.674240
  Se   1.2771678   10.077433   -1.673575
  Se   4.0443649   11.920867   -1.678116
  Se   6.8115620   13.764300   -1.679314
  Se   9.5787590   15.607733   -1.677633
  Se   12.345956   17.451166   -1.671933
  Se   -1.277167   4.9158214   -1.668422
  Se   1.4900291   6.7592544   -1.673546
  Se   4.2572262   8.6026875   -1.679190
  Se   7.0244233   10.446120   -1.687709
  Se   9.7916203   12.289553   -1.687790
  Se   12.558817   14.132986   -1.685973
  Se   15.326014   15.976419   -1.677883
  Se   1.7028905   3.4410750   -1.667887
  Se   4.4700875   5.2845080   -1.677883
  Se   7.2372846   7.1279411   -1.687781
  Se   10.004481   8.9713741   -1.695377
  Se   12.771678   10.814807   -1.694825
  Se   15.538875   12.658240   -1.687781
  Se   1.9157518   0.1228955   -1.663979
  Se   4.6829488   1.9663285   -1.671933
  Se   7.4501459   3.8097616   -1.685973
  Se   10.217343   5.6531946   -1.694825
  Se   12.984540   7.4966277   -1.702562
  Se   15.751737   9.3400607   -1.695377
  Se   18.518934   11.183493   -1.687709
  Se   7.6630072   0.4915821   -1.677633
  Se   10.430204   2.3350151   -1.687790
  Se   13.197401   4.1784482   -1.695377
  Se   15.964598   6.0218812   -1.694825
  Se   18.731795   7.8653143   -1.687790
  Se   13.410262   0.8602687   -1.687709
  Se   16.177459   2.7037017   -1.687781
  Se   18.944656   4.5471348   -1.685973
  Se   21.711853   6.3905678   -1.677633
  Se   19.157518   1.2289553   -1.677883
  Se   21.924715   3.0723884   -1.671933
  Se   24.904773   1.5976419   -1.663979
  Se   24.053328   0.1228955   8.4608112
  Se   21.286131   1.9663285   8.4707046
  Se   18.306072   0.4915821   8.4775560
  Se   21.498992   5.2845080   8.4765305
  Se   18.518934   3.8097616   8.4889234
  Se   15.538875   2.3350151   8.4923182
  Se   12.558817   0.8602687   8.4932439
  Se   18.731795   7.1279411   8.4923730
  Se   15.751737   5.6531946   8.5022927
  Se   12.771678   4.1784482   8.5043146
  Se   9.7916203   2.7037017   8.4923730
  Se   6.8115620   1.2289553   8.4765305
  Se   18.944656   10.446120   8.4932439
  Se   15.964598   8.9713741   8.5043146
  Se   12.984540   7.4966277   8.5143768
  Se   10.004481   6.0218812   8.5022927
  Se   7.0244233   4.5471348   8.4889234
  Se   4.0443649   3.0723884   8.4707047
  Se   1.0643065   1.5976419   8.4608112
  Se   16.177459   12.289553   8.4923181
  Se   13.197401   10.814807   8.5022927
  Se   10.217343   9.3400607   8.5043146
  Se   7.2372846   7.8653143   8.4923182
  Se   4.2572262   6.3905678   8.4775560
  Se   1.2771678   4.9158214   8.4654394
  Se   -1.702890   3.4410750   8.4644413
  Se   16.390321   15.607733   8.4775560
  Se   13.410262   14.132986   8.4889234
  Se   10.430204   12.658240   8.4923730
  Se   7.4501459   11.183493   8.4932439
  Se   4.4700875   9.7087473   8.4801034
  Se   1.4900291   8.2340009   8.4719081
  Se   -1.490029   6.7592544   8.4701361
  Se   13.623124   17.451166   8.4707046
  Se   10.643065   15.976419   8.4765305
  Se   7.6630072   14.501673   8.4791392
  Se   4.6829488   13.026926   8.4777172
  Se   1.7028905   11.552180   8.4709664
  Se   -1.277167   10.077433   8.4703364
  Se   -4.257226   8.6026875   8.4791392
  Se   13.835985   20.769345   8.4608112
  Se   10.855926   19.294599   8.4644413
  Se   7.8758685   17.819852   8.4701360
  Se   4.8958101   16.345106   8.4703364
  Se   1.9157518   14.870359   8.4698491
  Se   -1.064306   13.395613   8.4698491
  Se   -4.044364   11.920867   8.4777172
  Se   8.0887298   21.138032   8.4654394
  Se   5.1086715   19.663285   8.4719081
  Se   2.1286131   18.188539   8.4709664
  Se   -0.851445   16.713792   8.4698491
  Se   -3.831503   15.239046   8.4709664
  Se   -6.811562   13.764300   8.4801034
  Se   2.3414744   21.506718   8.4801034
  Se   -0.638583   20.031972   8.4777172
  Se   -3.618642   18.557225   8.4703364
  Se   -6.598700   17.082479   8.4719081
  Se   -3.405781   21.875405   8.4791392
  Se   -6.385839   20.400659   8.4701360
  Se   -9.365897   18.925912   8.4654394
  Se   -9.153036   22.244092   8.4644413
  Se   24.053328   0.1228955   5.1081932
  Se   21.286131   1.9663285   5.1158093
  Se   18.306072   0.4915821   5.1208049
  Se   21.498992   5.2845080   5.1207553
  Se   18.518934   3.8097616   5.1298933
  Se   15.538875   2.3350151   5.1315263
  Se   12.558817   0.8602687   5.1309651
  Se   18.731795   7.1279411   5.1314763
  Se   15.751737   5.6531946   5.1399997
  Se   12.771678   4.1784482   5.1403455
  Se   9.7916203   2.7037017   5.1314763
  Se   6.8115620   1.2289553   5.1207553
  Se   18.944656   10.446120   5.1309651
  Se   15.964598   8.9713741   5.1403455
  Se   12.984540   7.4966277   5.1492014
  Se   10.004481   6.0218812   5.1399997
  Se   7.0244233   4.5471348   5.1298934
  Se   4.0443649   3.0723884   5.1158093
  Se   1.0643065   1.5976419   5.1081932
  Se   16.177459   12.289553   5.1315263
  Se   13.197401   10.814807   5.1399997
  Se   10.217343   9.3400607   5.1403455
  Se   7.2372846   7.8653143   5.1315263
  Se   4.2572262   6.3905678   5.1208049
  Se   1.2771678   4.9158214   5.1118057
  Se   -1.702890   3.4410750   5.1112996
  Se   16.390321   15.607733   5.1208049
  Se   13.410262   14.132986   5.1298933
  Se   10.430204   12.658240   5.1314763
  Se   7.4501459   11.183493   5.1309651
  Se   4.4700875   9.7087473   5.1218746
  Se   1.4900291   8.2340009   5.1165607
  Se   -1.490029   6.7592544   5.1158974
  Se   13.623124   17.451166   5.1158093
  Se   10.643065   15.976419   5.1207553
  Se   7.6630072   14.501673   5.1214743
  Se   4.6829488   13.026926   5.1191743
  Se   1.7028905   11.552180   5.1146133
  Se   -1.277167   10.077433   5.1144848
  Se   -4.257226   8.6026875   5.1214743
  Se   13.835985   20.769345   5.1081932
  Se   10.855926   19.294599   5.1112996
  Se   7.8758685   17.819852   5.1158974
  Se   4.8958101   16.345106   5.1144848
  Se   1.9157518   14.870359   5.1130683
  Se   -1.064306   13.395613   5.1130683
  Se   -4.044364   11.920867   5.1191743
  Se   8.0887298   21.138032   5.1118057
  Se   5.1086715   19.663285   5.1165607
  Se   2.1286131   18.188539   5.1146133
  Se   -0.851445   16.713792   5.1130683
  Se   -3.831503   15.239046   5.1146133
  Se   -6.811562   13.764300   5.1218746
  Se   2.3414744   21.506718   5.1218746
  Se   -0.638583   20.031972   5.1191743
  Se   -3.618642   18.557225   5.1144848
  Se   -6.598700   17.082479   5.1165607
  Se   -3.405781   21.875405   5.1214743
  Se   -6.385839   20.400659   5.1158973
  Se   -9.365897   18.925912   5.1118057
  Se   -9.153036   22.244092   5.1112996
K_POINTS automatic
  1 1 1 1 1 1